LAMMPS description

    1176          atoms
       0          bonds
       0         angles
       0      dihedrals
       0      impropers

       5     atom types
       0     bond types
       0    angle types
       0 dihedral types
       0 improper types


  0.0000000      19.768000     xlo xhi
  0.0000000      17.119590     ylo yhi
  0.0000000      27.776000     zlo zhi
 -9.8840000      0.0000000      0.0000000     xy xz yz

 Atoms

      1      1      1      0.0000000      9.7960000     17.0740000      0.0490000
      2      2      1      0.0000000      0.0680000      0.1220000     14.0500000
      3      3      1      0.0000000     -1.2970000      2.5050000      0.0830000
      4      4      1      0.0000000     -1.3330000      2.4650000     13.9600000
      5      5      1      0.0000000     -2.7360000      4.8600000      0.1120000
      6      6      1      0.0000000     -2.7640000      4.9440000     13.9010000
      7      7      1      0.0000000     15.3730000      7.3190000      0.0670000
      8      8      1      0.0000000     15.4870000      7.2060000     13.9900000
      9      9      1      0.0000000     -5.6450000      9.9200000      0.1220000
     10     10      1      0.0000000     14.0130000      9.7510000     13.8310000
     11     11      1      0.0000000     -7.0690000     12.2890000      0.1360000
     12     12      1      0.0000000     12.5800000     12.1120000     13.9510000
     13     13      1      0.0000000     -8.3580000     14.5480000      0.1110000
     14     14      1      0.0000000     11.2400000     14.6630000     13.8750000
     15     15      1      0.0000000     -7.0850000     16.9800000      0.0660000
     16     16      1      0.0000000     -7.1090000     17.1120000     13.9870000
     17     17      1      0.0000000      1.4230000      2.5340000      0.1290000
     18     18      1      0.0000000      1.5110000      2.4600000     13.9170000
     19     19      1      0.0000000      0.1890000      5.0070000      0.1210000
     20     20      1      0.0000000      0.0990000      4.9090000     13.9670000
     21     21      1      0.0000000     -1.4540000      7.2180000     27.7680000
     22     22      1      0.0000000     -1.3110000      7.3490000     13.9310000
     23     23      1      0.0000000     -2.5670000      9.8180000      0.0440000
     24     24      1      0.0000000     -2.8840000      9.8430000     13.9460000
     25     25      1      0.0000000     -4.2020000     12.3500000     27.6670000
     26     26      1      0.0000000     -4.2710000     12.1490000     13.9750000
     27     27      1      0.0000000     -5.3600000     14.8640000      0.0550000
     28     28      1      0.0000000     -5.6710000     14.6800000     14.0690000
     29     29      1      0.0000000     -4.0440000     17.0130000      0.0600000
     30     30      1      0.0000000      5.7200000      0.0110000     14.0210000
     31     31      1      0.0000000      4.2230000      2.6070000      0.0560000
     32     32      1      0.0000000      4.2880000      2.6580000     13.9360000
     33     33      1      0.0000000      2.9110000      5.0820000      0.1320000
     34     34      1      0.0000000      2.8300000      4.9340000     13.9480000
     35     35      1      0.0000000      1.2670000      7.3740000      0.0900000
     36     36      1      0.0000000      1.4560000      7.5380000     14.0020000
     37     37      1      0.0000000      0.0230000      9.8140000     27.7170000
     38     38      1      0.0000000     -0.0280000      9.9300000     14.0300000
     39     39      1      0.0000000     -1.5640000     12.1850000     27.6850000
     40     40      1      0.0000000     -1.1440000     12.2300000     14.0240000
     41     41      1      0.0000000     -2.6860000     14.7240000     27.7610000
     42     42      1      0.0000000     -2.8790000     14.8790000     14.0080000
     43     43      1      0.0000000      8.4140000      0.0790000      0.0600000
     44     44      1      0.0000000     -1.3460000     17.1140000     13.9450000
     45     45      1      0.0000000      6.9470000      2.5480000      0.0670000
     46     46      1      0.0000000      7.1260000      2.3120000     13.9680000
     47     47      1      0.0000000      5.4940000      4.9870000      0.1430000
     48     48      1      0.0000000      5.5460000      4.9580000     13.9500000
     49     49      1      0.0000000      4.3850000      7.2980000      0.0940000
     50     50      1      0.0000000      4.4070000      7.0940000     14.0130000
     51     51      1      0.0000000      2.8900000      9.7050000      0.0300000
     52     52      1      0.0000000      2.8350000      9.9110000     13.9330000
     53     53      1      0.0000000      1.4410000     12.1300000      0.0800000
     54     54      1      0.0000000      1.5700000     12.1300000     13.9540000
     55     55      1      0.0000000     -0.0550000     14.5360000      0.0190000
     56     56      1      0.0000000     -0.1300000     14.7750000     13.9630000
     57     57      1      0.0000000      1.3860000     17.0040000      0.1160000
     58     58      1      0.0000000      1.5320000     16.9970000     13.9190000
     59     59      1      0.0000000      9.8850000      2.5470000      0.1620000
     60     60      1      0.0000000      9.9210000      2.4740000     13.9610000
     61     61      1      0.0000000      8.6020000      4.8410000      0.1370000
     62     62      1      0.0000000      8.4700000      4.8440000     13.9270000
     63     63      1      0.0000000      7.0710000      7.2180000     27.7600000
     64     64      1      0.0000000      7.0280000      7.4470000     13.8620000
     65     65      1      0.0000000      5.5730000      9.8620000      0.0870000
     66     66      1      0.0000000      5.6590000      9.8630000     13.9370000
     67     67      1      0.0000000      4.2870000     12.3050000      0.0470000
     68     68      1      0.0000000      4.3940000     12.4080000     13.9900000
     69     69      1      0.0000000      2.6420000     14.6280000      0.1560000
     70     70      1      0.0000000      2.8140000     14.9500000     13.9550000
     71     71      1      0.0000000      4.2690000     17.0550000      0.1000000
     72     72      1      0.0000000      4.2480000     17.0910000     13.8610000
     73     73      1      0.0000000     12.6950000      2.3510000      0.1630000
     74     74      1      0.0000000     12.6570000      2.3660000     13.8940000
     75     75      1      0.0000000     11.3760000      4.8890000      0.0060000
     76     76      1      0.0000000     11.2040000      4.8090000     14.0590000
     77     77      1      0.0000000      9.8430000      7.1980000      0.0290000
     78     78      1      0.0000000      9.8640000      7.3240000     13.8880000
     79     79      1      0.0000000      8.4030000      9.6040000      0.0520000
     80     80      1      0.0000000      8.5980000      9.7260000     13.9470000
     81     81      1      0.0000000      7.0230000     12.2820000      0.0070000
     82     82      1      0.0000000      7.1560000     11.9860000     13.9550000
     83     83      1      0.0000000      5.6800000     14.7480000      0.1800000
     84     84      1      0.0000000      5.7000000     14.6560000     14.0830000
     85     85      1      0.0000000      7.2170000     17.0540000     27.7730000
     86     86      1      0.0000000     16.9800000      0.0320000     13.9500000
     87     87      1      0.0000000     15.4680000      2.4570000      0.0310000
     88     88      1      0.0000000     15.4900000      2.5610000     13.9700000
     89     89      1      0.0000000     14.1440000      4.8190000      0.0210000
     90     90      1      0.0000000     14.2100000      4.9350000     13.9360000
     91     91      1      0.0000000     12.6380000      7.2200000      0.1510000
     92     92      1      0.0000000     12.7300000      7.2750000     13.9370000
     93     93      1      0.0000000     11.2650000      9.7610000      0.2120000
     94     94      1      0.0000000     11.3320000      9.5980000     13.8710000
     95     95      1      0.0000000      9.9070000     12.1150000      0.1280000
     96     96      1      0.0000000     10.0060000     12.3120000     14.0120000
     97     97      1      0.0000000      8.4450000     14.6960000      0.1730000
     98     98      1      0.0000000      8.4360000     14.8120000     13.9850000
     99     99      1      0.0000000     -0.1170000      1.6890000      9.3650000
    100    100      1      0.0000000      0.0690000      1.8110000     23.3370000
    101    101      1      0.0000000     -1.4710000      4.0590000      9.3560000
    102    102      1      0.0000000     -1.4260000      4.0980000     23.1090000
    103    103      1      0.0000000     -2.6820000      6.4770000      9.3050000
    104    104      1      0.0000000     -2.9240000      6.5180000     23.1990000
    105    105      1      0.0000000     -4.1630000      8.8960000      9.3750000
    106    106      1      0.0000000     -4.3550000      8.8420000     23.1260000
    107    107      1      0.0000000     -5.4360000     11.4030000      9.3800000
    108    108      1      0.0000000     -5.6070000     11.3510000     23.2330000
    109    109      1      0.0000000     -7.1190000     13.8070000      9.4200000
    110    110      1      0.0000000     -7.1470000     13.7490000     23.3890000
    111    111      1      0.0000000     -8.6680000     16.4190000      9.4400000
    112    112      1      0.0000000     -8.4450000     16.2950000     23.2900000
    113    113      1      0.0000000      2.8610000      1.6020000      9.3470000
    114    114      1      0.0000000      2.7470000      1.7200000     23.3700000
    115    115      1      0.0000000      1.3150000      4.1740000      9.3560000
    116    116      1      0.0000000      1.5630000      4.2410000     23.3250000
    117    117      1      0.0000000      0.1640000      6.5020000      9.4340000
    118    118      1      0.0000000     -0.0400000      6.6670000     23.2130000
    119    119      1      0.0000000     -1.3200000      9.0070000      9.4500000
    120    120      1      0.0000000     -1.5390000      8.9010000     23.2840000
    121    121      1      0.0000000     -2.8230000     11.4760000      9.4830000
    122    122      1      0.0000000     -2.9140000     11.2360000     23.2630000
    123    123      1      0.0000000     -4.2400000     14.0030000      9.3370000
    124    124      1      0.0000000     -4.1900000     13.8790000     23.1370000
    125    125      1      0.0000000     -5.8220000     16.3390000      9.3760000
    126    126      1      0.0000000     -5.6590000     16.3390000     23.4160000
    127    127      1      0.0000000      5.6970000      1.6220000      9.4370000
    128    128      1      0.0000000      5.5470000      1.4530000     23.2020000
    129    129      1      0.0000000      4.3420000      3.9090000      9.1780000
    130    130      1      0.0000000      4.3690000      3.9510000     23.2370000
    131    131      1      0.0000000      2.8590000      6.6150000      9.2380000
    132    132      1      0.0000000      2.9090000      6.6780000     23.2160000
    133    133      1      0.0000000      1.3350000      8.9220000      9.3620000
    134    134      1      0.0000000      1.4160000      9.0370000     23.2470000
    135    135      1      0.0000000      0.0300000     11.4670000      9.3570000
    136    136      1      0.0000000      0.0060000     11.3670000     23.2690000
    137    137      1      0.0000000     -1.4560000     13.9060000      9.3040000
    138    138      1      0.0000000     -1.4300000     13.8900000     23.1710000
    139    139      1      0.0000000     -3.0830000     16.3750000      9.3160000
    140    140      1      0.0000000     -2.6590000     16.2770000     23.1860000
    141    141      1      0.0000000      8.5410000      1.5790000      9.3410000
    142    142      1      0.0000000      8.3080000      1.6730000     23.2310000
    143    143      1      0.0000000      7.0250000      4.1090000      9.3270000
    144    144      1      0.0000000      7.1760000      4.1770000     23.2870000
    145    145      1      0.0000000      5.7850000      6.5010000      9.3030000
    146    146      1      0.0000000      5.6870000      6.6640000     23.1740000
    147    147      1      0.0000000      4.3290000      9.0460000      9.3970000
    148    148      1      0.0000000      4.2440000      9.0680000     23.1930000
    149    149      1      0.0000000      2.7200000     11.3910000      9.4820000
    150    150      1      0.0000000      2.8330000     11.5890000     23.3110000
    151    151      1      0.0000000      1.5540000     13.8370000      9.4100000
    152    152      1      0.0000000      1.4380000     13.7990000     23.1240000
    153    153      1      0.0000000     -0.0010000     16.2710000      9.2120000
    154    154      1      0.0000000     -0.0280000     16.5370000     23.3130000
    155    155      1      0.0000000     11.2610000      1.6040000      9.3300000
    156    156      1      0.0000000     11.2510000      1.6730000     23.2430000
    157    157      1      0.0000000     10.0680000      4.0380000      9.3080000
    158    158      1      0.0000000      9.8390000      4.1510000     23.1590000
    159    159      1      0.0000000      8.5730000      6.5360000      9.2740000
    160    160      1      0.0000000      8.4440000      6.5400000     23.1930000
    161    161      1      0.0000000      7.0150000      8.9080000      9.3800000
    162    162      1      0.0000000      6.9830000      9.0840000     23.1240000
    163    163      1      0.0000000      5.5570000     11.3410000      9.4780000
    164    164      1      0.0000000      5.8070000     11.4150000     23.3530000
    165    165      1      0.0000000      4.2950000     13.8440000      9.3220000
    166    166      1      0.0000000      4.3270000     13.8970000     23.1180000
    167    167      1      0.0000000      2.7140000     16.2640000      9.2040000
    168    168      1      0.0000000      2.8650000     16.2670000     23.2810000
    169    169      1      0.0000000     14.0380000      1.7880000      9.2430000
    170    170      1      0.0000000     13.9990000      1.6340000     23.2560000
    171    171      1      0.0000000     12.6120000      4.1110000      9.3770000
    172    172      1      0.0000000     12.6220000      3.8860000     23.2830000
    173    173      1      0.0000000     11.2150000      6.5350000      9.2790000
    174    174      1      0.0000000     11.3510000      6.5850000     23.1960000
    175    175      1      0.0000000      9.8190000      8.9220000      9.3120000
    176    176      1      0.0000000     10.1520000      9.0140000     23.2140000
    177    177      1      0.0000000      8.4660000     11.1040000      9.2270000
    178    178      1      0.0000000      8.4770000     11.4240000     23.2070000
    179    179      1      0.0000000      7.0870000     13.8930000      9.2110000
    180    180      1      0.0000000      7.2400000     13.6810000     23.2790000
    181    181      1      0.0000000      5.5660000     16.3500000      9.3430000
    182    182      1      0.0000000      5.5120000     16.1500000     23.1950000
    183    183      1      0.0000000     16.9810000      1.6360000      9.2780000
    184    184      1      0.0000000     16.8310000      1.7930000     23.1660000
    185    185      1      0.0000000     15.6040000      4.0490000      9.3720000
    186    186      1      0.0000000     15.3350000      4.0020000     23.1510000
    187    187      1      0.0000000     13.9960000      6.7000000      9.3730000
    188    188      1      0.0000000     14.0070000      6.4900000     23.2350000
    189    189      1      0.0000000     12.7430000      8.9560000      9.2810000
    190    190      1      0.0000000     12.7620000      9.0530000     23.2660000
    191    191      1      0.0000000     11.3140000     11.2370000      9.3920000
    192    192      1      0.0000000     11.2800000     11.4490000     23.2810000
    193    193      1      0.0000000      9.8980000     13.8260000      9.3880000
    194    194      1      0.0000000      9.9500000     13.8420000     23.1250000
    195    195      1      0.0000000      8.2940000     16.3370000      9.2780000
    196    196      1      0.0000000      8.3880000     16.3930000     23.2810000
    197    197      1      0.0000000      1.4290000      0.8610000      4.8350000
    198    198      1      0.0000000      1.4090000      0.7070000     18.7290000
    199    199      1      0.0000000     -0.0050000      3.3120000      4.6660000
    200    200      1      0.0000000      0.1360000      3.4900000     18.6280000
    201    201      1      0.0000000     -1.3290000      5.7390000      4.7750000
    202    202      1      0.0000000     -1.5610000      5.6090000     18.6850000
    203    203      1      0.0000000     -2.5670000      8.1980000      4.7030000
    204    204      1      0.0000000     -2.8790000      8.2760000     18.6590000
    205    205      1      0.0000000     -4.0370000     10.5050000      4.6660000
    206    206      1      0.0000000     -4.3940000     10.5430000     18.5910000
    207    207      1      0.0000000     -5.6870000     12.9870000      4.6300000
    208    208      1      0.0000000     -5.7700000     13.1650000     18.5430000
    209    209      1      0.0000000     -7.0440000     15.5190000      4.8540000
    210    210      1      0.0000000     -7.2280000     15.4780000     18.6960000
    211    211      1      0.0000000      4.2780000      0.8350000      4.6300000
    212    212      1      0.0000000      4.3520000      0.8410000     18.5200000
    213    213      1      0.0000000      2.8830000      3.2530000      4.7410000
    214    214      1      0.0000000      2.8100000      3.1130000     18.5770000
    215    215      1      0.0000000      1.4820000      5.7960000      4.7060000
    216    216      1      0.0000000      1.4320000      5.6930000     18.4850000
    217    217      1      0.0000000     -0.0160000      8.2870000      4.5820000
    218    218      1      0.0000000     -0.0880000      8.1020000     18.5530000
    219    219      1      0.0000000     -1.5310000     10.5010000      4.7720000
    220    220      1      0.0000000     -1.3760000     10.3380000     18.6530000
    221    221      1      0.0000000     -2.8260000     13.0820000      4.6600000
    222    222      1      0.0000000     -2.9490000     12.9910000     18.6520000
    223    223      1      0.0000000     -4.2800000     15.4190000      4.7040000
    224    224      1      0.0000000     -4.2710000     15.4780000     18.7480000
    225    225      1      0.0000000      7.1120000      0.6930000      4.6600000
    226    226      1      0.0000000      6.9860000      0.8460000     18.6840000
    227    227      1      0.0000000      5.5500000      3.3200000      4.7730000
    228    228      1      0.0000000      5.6380000      3.2830000     18.5460000
    229    229      1      0.0000000      4.2230000      5.7270000      4.7960000
    230    230      1      0.0000000      4.1860000      5.7990000     18.6880000
    231    231      1      0.0000000      2.9440000      8.2890000      4.6360000
    232    232      1      0.0000000      2.9280000      8.1180000     18.6490000
    233    233      1      0.0000000      1.4850000     10.6100000      4.7230000
    234    234      1      0.0000000      1.2610000     10.6370000     18.5770000
    235    235      1      0.0000000      0.0040000     12.9910000      4.7140000
    236    236      1      0.0000000     -0.0560000     12.9410000     18.5930000
    237    237      1      0.0000000     -1.5370000     15.4470000      4.6780000
    238    238      1      0.0000000     -1.4620000     15.4430000     18.7180000
    239    239      1      0.0000000      9.7040000      0.8470000      4.5630000
    240    240      1      0.0000000     10.0540000      0.9090000     18.6200000
    241    241      1      0.0000000      8.4700000      3.3620000      4.8110000
    242    242      1      0.0000000      8.5350000      3.2040000     18.6600000
    243    243      1      0.0000000      7.0210000      5.4660000      4.6320000
    244    244      1      0.0000000      7.1110000      5.6990000     18.6580000
    245    245      1      0.0000000      5.6400000      8.1580000      4.6800000
    246    246      1      0.0000000      5.6910000      8.1630000     18.6770000
    247    247      1      0.0000000      4.2570000     10.6740000      4.6690000
    248    248      1      0.0000000      4.2610000     10.6030000     18.4230000
    249    249      1      0.0000000      2.7440000     12.9120000      4.6640000
    250    250      1      0.0000000      2.8910000     13.0110000     18.6430000
    251    251      1      0.0000000      1.4240000     15.4750000      4.6170000
    252    252      1      0.0000000      1.2580000     15.3870000     18.6920000
    253    253      1      0.0000000     12.5510000      0.8520000      4.8060000
    254    254      1      0.0000000     12.6500000      0.8410000     18.6670000
    255    255      1      0.0000000     11.1670000      3.2320000      4.6830000
    256    256      1      0.0000000     11.2000000      3.2830000     18.5520000
    257    257      1      0.0000000      9.7950000      5.6440000      4.6560000
    258    258      1      0.0000000      9.8710000      5.6480000     18.5100000
    259    259      1      0.0000000      8.3910000      8.1150000      4.7970000
    260    260      1      0.0000000      8.3960000      8.2000000     18.5890000
    261    261      1      0.0000000      6.9220000     10.6670000      4.6630000
    262    262      1      0.0000000      6.9780000     10.7470000     18.5510000
    263    263      1      0.0000000      5.4690000     13.0500000      4.5940000
    264    264      1      0.0000000      5.6240000     13.0130000     18.5860000
    265    265      1      0.0000000      4.2490000     15.4420000      4.6740000
    266    266      1      0.0000000      4.0700000     15.5020000     18.4630000
    267    267      1      0.0000000     15.6210000      0.7080000      4.6680000
    268    268      1      0.0000000     15.7480000      0.8900000     18.6030000
    269    269      1      0.0000000     13.8790000      3.4270000      4.7350000
    270    270      1      0.0000000     14.0100000      3.3620000     18.5980000
    271    271      1      0.0000000     13.0000000      5.7570000      4.7630000
    272    272      1      0.0000000     12.8240000      5.7340000     18.6040000
    273    273      1      0.0000000     11.3040000      8.2120000      4.6630000
    274    274      1      0.0000000     11.1830000      8.0630000     18.6050000
    275    275      1      0.0000000      9.7100000     10.6290000      4.5750000
    276    276      1      0.0000000      9.8710000     10.6440000     18.7020000
    277    277      1      0.0000000      8.3420000     13.0610000      4.6820000
    278    278      1      0.0000000      8.6080000     12.9860000     18.5880000
    279    279      1      0.0000000      7.0270000     15.4630000      4.8200000
    280    280      1      0.0000000      6.9710000     15.6670000     18.4800000
    281    281      1      0.0000000     18.3310000      0.7810000      4.7390000
    282    282      1      0.0000000     18.5850000      0.7530000     18.6540000
    283    283      1      0.0000000     16.8090000      3.1130000      4.6380000
    284    284      1      0.0000000     16.7640000      3.1040000     18.6250000
    285    285      1      0.0000000     15.5600000      5.7370000      4.7360000
    286    286      1      0.0000000     15.5060000      5.4960000     18.5380000
    287    287      1      0.0000000     14.1120000      8.2540000      4.7170000
    288    288      1      0.0000000     14.1000000      8.0630000     18.6410000
    289    289      1      0.0000000     12.7690000     10.6150000      4.7670000
    290    290      1      0.0000000     12.7330000     10.6240000     18.5950000
    291    291      1      0.0000000     11.2450000     13.0210000      4.7300000
    292    292      1      0.0000000     11.3880000     13.1180000     18.6420000
    293    293      1      0.0000000      9.9540000     15.5220000      4.6780000
    294    294      1      0.0000000      9.7560000     15.3570000     18.6170000
    295    295      3      0.0000000     19.7470000      0.0000000      7.0320000
    296    296      3      0.0000000      9.8480000     17.0400000     21.0580000
    297    297      3      0.0000000     18.3430000      2.4270000      6.9900000
    298    298      2      0.0000000     18.3360000      2.4350000     20.9280000
    299    299      3      0.0000000     -2.8030000      4.9650000      6.9350000
    300    300      3      0.0000000     16.8630000      4.8190000     20.8490000
    301    301      3      0.0000000     -4.1550000      7.3900000      6.9920000
    302    302      4      0.0000000     15.5010000      7.3070000     20.8330000
    303    303      3      0.0000000     -5.6020000      9.7700000      7.0140000
    304    304      3      0.0000000     14.0630000      9.7900000     20.9800000
    305    305      3      0.0000000     -6.9960000     12.2550000      7.1450000
    306    306      3      0.0000000     12.6810000     12.1700000     20.9640000
    307    307      3      0.0000000     11.2590000     14.6210000      6.9900000
    308    308      3      0.0000000     -8.4160000     14.6580000     20.9820000
    309    309      3      0.0000000     -7.0820000     17.0940000      7.1440000
    310    310      3      0.0000000     -7.0890000     17.0920000     21.0230000
    311    311      3      0.0000000      1.3760000      2.4690000      7.0060000
    312    312      3      0.0000000      1.3530000      2.4270000     20.9060000
    313    313      3      0.0000000     -0.0080000      4.8860000      7.0470000
    314    314      3      0.0000000     -0.0650000      4.8870000     20.9400000
    315    315      3      0.0000000     -1.3950000      7.3570000      7.0690000
    316    316      3      0.0000000     -1.5740000      7.3220000     20.8720000
    317    317      3      0.0000000     -2.7830000      9.8540000      7.0810000
    318    318      3      0.0000000     -2.9350000      9.7140000     21.0220000
    319    319      3      0.0000000     -4.2430000     12.2480000      6.9680000
    320    320      3      0.0000000     -4.3400000     12.2390000     20.8580000
    321    321      3      0.0000000     -5.6390000     14.6910000      7.0310000
    322    322      3      0.0000000     -5.5560000     14.6770000     20.9970000
    323    323      3      0.0000000      5.6130000      0.0650000      7.0390000
    324    324      3      0.0000000      5.5920000      0.1060000     20.8780000
    325    325      3      0.0000000      4.1970000      2.4440000      7.0410000
    326    326      3      0.0000000      4.1840000      2.4690000     20.9440000
    327    327      3      0.0000000      2.8040000      4.9610000      7.0900000
    328    328      3      0.0000000      2.7980000      4.9480000     20.9280000
    329    329      3      0.0000000      1.4550000      7.3480000      6.9610000
    330    330      3      0.0000000      1.3550000      7.3230000     20.8130000
    331    331      3      0.0000000      0.0730000      9.8190000      7.0890000
    332    332      3      0.0000000     -0.0340000      9.7740000     20.9310000
    333    333      3      0.0000000     -1.4040000     12.2560000      6.9390000
    334    334      3      0.0000000     -1.4850000     12.1960000     21.0020000
    335    335      3      0.0000000     -2.8300000     14.6920000      7.0510000
    336    336      3      0.0000000     -2.8300000     14.7270000     20.8650000
    337    337      3      0.0000000     -1.4060000     17.1130000      6.8990000
    338    338      3      0.0000000     -1.4230000     17.0820000     20.9260000
    339    339      3      0.0000000      7.0420000      2.4760000      7.0710000
    340    340      3      0.0000000      7.0870000      2.4660000     20.9000000
    341    341      3      0.0000000      5.6360000      4.9040000      7.0510000
    342    342      3      0.0000000      5.6120000      4.8770000     20.8840000
    343    343      3      0.0000000      4.2720000      7.4120000      7.0240000
    344    344      3      0.0000000      4.1820000      7.3740000     20.8840000
    345    345      3      0.0000000      2.8580000      9.8310000      7.1230000
    346    346      3      0.0000000      2.8010000      9.8520000     20.9080000
    347    347      3      0.0000000      1.4270000     12.2830000      7.0050000
    348    348      3      0.0000000      1.3780000     12.2700000     20.9230000
    349    349      3      0.0000000      0.0350000     14.6830000      6.9640000
    350    350      3      0.0000000      0.0650000     14.6150000     20.9210000
    351    351      3      0.0000000     11.2580000      0.0010000      7.0690000
    352    352      3      0.0000000      1.4390000     17.1190000     20.8840000
    353    353      3      0.0000000      9.8870000      2.5060000      7.0040000
    354    354      3      0.0000000      9.8830000      2.3710000     20.8930000
    355    355      3      0.0000000      8.4880000      4.9680000      7.0330000
    356    356      3      0.0000000      8.4740000      4.9250000     20.8470000
    357    357      3      0.0000000      7.0470000      7.3090000      7.0280000
    358    358      3      0.0000000      7.0570000      7.3240000     20.8430000
    359    359      3      0.0000000      5.7310000      9.8170000      6.9780000
    360    360      3      0.0000000      5.6090000      9.8100000     20.8860000
    361    361      3      0.0000000      4.1970000     12.1970000      7.0240000
    362    362      3      0.0000000      4.2090000     12.2460000     20.9320000
    363    363      3      0.0000000      2.8390000     14.6680000      6.9920000
    364    364      3      0.0000000      2.8240000     14.6830000     20.8650000
    365    365      3      0.0000000     14.1800000      0.0510000      7.0090000
    366    366      3      0.0000000      4.2070000     17.0780000     20.8940000
    367    367      3      0.0000000     12.6550000      2.5200000      7.0140000
    368    368      3      0.0000000     12.6510000      2.4400000     20.9170000
    369    369      3      0.0000000     11.3310000      4.9600000      6.9860000
    370    370      3      0.0000000     11.2960000      4.8500000     20.8810000
    371    371      3      0.0000000      9.8960000      7.3650000      6.9470000
    372    372      3      0.0000000      9.8630000      7.3140000     20.8480000
    373    373      3      0.0000000      8.5360000      9.7790000      6.9260000
    374    374      3      0.0000000      8.4330000      9.7760000     20.9560000
    375    375      3      0.0000000      7.0520000     12.2420000      6.9890000
    376    376      3      0.0000000      7.0530000     12.2170000     20.8770000
    377    377      3      0.0000000      5.6590000     14.6120000      7.0320000
    378    378      3      0.0000000      5.6230000     14.6500000     20.8640000
    379    379      3      0.0000000     16.9390000      0.0200000      7.0320000
    380    380      3      0.0000000      7.0570000     17.0960000     20.9110000
    381    381      3      0.0000000     15.5510000      2.5390000      6.9960000
    382    382      3      0.0000000     15.4660000      2.3990000     20.8270000
    383    383      3      0.0000000     14.1110000      4.9860000      6.9910000
    384    384      3      0.0000000     14.0720000      4.8570000     20.9160000
    385    385      3      0.0000000     12.7420000      7.3900000      6.9980000
    386    386      3      0.0000000     12.7300000      7.3250000     20.8900000
    387    387      3      0.0000000     11.3720000      9.8040000      7.0450000
    388    388      3      0.0000000     11.3200000      9.7500000     20.8470000
    389    389      3      0.0000000      9.8950000     12.1730000      7.0350000
    390    390      3      0.0000000      9.9060000     12.2220000     20.9070000
    391    391      3      0.0000000      8.5100000     14.6910000      7.0320000
    392    392      3      0.0000000      8.4890000     14.6120000     20.9220000
    393    393      3      0.0000000     -0.0100000      1.6280000      2.4000000
    394    394      3      0.0000000     -0.0610000      1.5850000     16.2790000
    395    395      3      0.0000000     -1.3810000      4.0910000      2.4350000
    396    396      3      0.0000000     -1.4610000      4.0200000     16.2530000
    397    397      3      0.0000000     -2.8630000      6.5200000      2.4410000
    398    398      3      0.0000000     -2.7920000      6.5230000     16.2920000
    399    399      3      0.0000000     -4.2240000      8.9890000      2.3940000
    400    400      3      0.0000000     -4.2530000      8.9690000     16.2950000
    401    401      3      0.0000000     -5.6400000     11.4790000      2.3310000
    402    402      3      0.0000000     -5.6200000     11.4240000     16.3600000
    403    403      3      0.0000000     -7.0580000     13.8620000      2.3750000
    404    404      3      0.0000000     -7.0380000     13.8810000     16.3330000
    405    405      3      0.0000000     -8.4460000     16.2790000      2.4060000
    406    406      3      0.0000000     -8.5000000     16.3200000     16.3910000
    407    407      3      0.0000000      2.8390000      1.6270000      2.3490000
    408    408      3      0.0000000      2.7460000      1.6090000     16.3720000
    409    409      3      0.0000000      1.4110000      4.0780000      2.3960000
    410    410      3      0.0000000      1.4210000      4.0520000     16.2630000
    411    411      3      0.0000000     -0.0290000      6.4980000      2.3680000
    412    412      3      0.0000000      0.0090000      6.5520000     16.2900000
    413    413      3      0.0000000     -1.4560000      8.9690000      2.3130000
    414    414      3      0.0000000     -1.4550000      8.9530000     16.2540000
    415    415      3      0.0000000     -2.8600000     11.4410000      2.3720000
    416    416      3      0.0000000     -2.7650000     11.3810000     16.4520000
    417    417      3      0.0000000     -4.3000000     13.9120000      2.3700000
    418    418      3      0.0000000     -4.2170000     13.8170000     16.2860000
    419    419      3      0.0000000     -5.6880000     16.2950000      2.4140000
    420    420      3      0.0000000     -5.6570000     16.2840000     16.3140000
    421    421      3      0.0000000      5.6300000      1.6490000      2.3420000
    422    422      3      0.0000000      5.6270000      1.6110000     16.2120000
    423    423      3      0.0000000      4.2130000      4.1480000      2.3440000
    424    424      3      0.0000000      4.3050000      4.0290000     16.2730000
    425    425      3      0.0000000      2.8330000      6.5550000      2.3940000
    426    426      3      0.0000000      2.8380000      6.4690000     16.3420000
    427    427      3      0.0000000      1.4440000      8.9550000      2.3620000
    428    428      3      0.0000000      1.4070000      8.9110000     16.3480000
    429    429      3      0.0000000     -0.0570000     11.3940000      2.3440000
    430    430      3      0.0000000     -0.0000000     11.4060000     16.2650000
    431    431      3      0.0000000     -1.4440000     13.8130000      2.3600000
    432    432      3      0.0000000     -1.3920000     13.8410000     16.2810000
    433    433      3      0.0000000     -2.8070000     16.2580000      2.3370000
    434    434      3      0.0000000     -2.8160000     16.2920000     16.3630000
    435    435      3      0.0000000      8.3960000      1.6440000      2.3870000
    436    436      3      0.0000000      8.4640000      1.6440000     16.3220000
    437    437      3      0.0000000      7.0690000      4.0890000      2.4400000
    438    438      3      0.0000000      7.0180000      4.1040000     16.2040000
    439    439      3      0.0000000      5.6630000      6.5290000      2.3640000
    440    440      3      0.0000000      5.6880000      6.5850000     16.2910000
    441    441      3      0.0000000      4.2970000      8.9840000      2.3950000
    442    442      3      0.0000000      4.3060000      8.9850000     16.2990000
    443    443      3      0.0000000      2.8130000     11.4040000      2.2710000
    444    444      3      0.0000000      2.8400000     11.3540000     16.3240000
    445    445      3      0.0000000      1.4130000     13.7890000      2.2060000
    446    446      3      0.0000000      1.4540000     13.8160000     16.2770000
    447    447      3      0.0000000     -0.0190000     16.2270000      2.3890000
    448    448      3      0.0000000     -0.0190000     16.2480000     16.2910000
    449    449      3      0.0000000     11.2430000      1.5950000      2.4670000
    450    450      3      0.0000000     11.3240000      1.5860000     16.2530000
    451    451      3      0.0000000      9.8570000      4.0210000      2.4700000
    452    452      3      0.0000000      9.8950000      4.0400000     16.2880000
    453    453      3      0.0000000      8.4950000      6.5640000      2.4070000
    454    454      3      0.0000000      8.4360000      6.5660000     16.1500000
    455    455      3      0.0000000      7.1070000      9.0260000      2.3700000
    456    456      3      0.0000000      7.1040000      9.0320000     16.2720000
    457    457      3      0.0000000      5.6750000     11.3940000      2.3680000
    458    458      3      0.0000000      5.6550000     11.4450000     16.2490000
    459    459      3      0.0000000      4.2540000     13.8980000      2.4110000
    460    460      3      0.0000000      4.2090000     13.8290000     16.2260000
    461    461      3      0.0000000      2.7610000     16.3290000      2.3710000
    462    462      3      0.0000000      2.8430000     16.3340000     16.3710000
    463    463      3      0.0000000     14.1400000      1.5700000      2.4830000
    464    464      3      0.0000000     14.0850000      1.6390000     16.2410000
    465    465      3      0.0000000     12.6800000      4.0520000      2.3950000
    466    466      3      0.0000000     12.6940000      4.0510000     16.3030000
    467    467      3      0.0000000     11.3460000      6.5070000      2.4650000
    468    468      3      0.0000000     11.3050000      6.5230000     16.2670000
    469    469      3      0.0000000      9.8710000      8.9410000      2.3030000
    470    470      3      0.0000000      9.9450000      8.9830000     16.3010000
    471    471      3      0.0000000      8.4420000     11.3750000      2.3190000
    472    472      3      0.0000000      8.4790000     11.4070000     16.2850000
    473    473      3      0.0000000      7.0720000     13.9030000      2.2890000
    474    474      3      0.0000000      7.0650000     13.9070000     16.2080000
    475    475      3      0.0000000      5.6280000     16.3570000      2.3450000
    476    476      3      0.0000000      5.6530000     16.3250000     16.2320000
    477    477      3      0.0000000     16.9200000      1.6860000      2.4070000
    478    478      3      0.0000000     16.9220000      1.5960000     16.2550000
    479    479      3      0.0000000     15.4650000      4.0840000      2.4930000
    480    480      3      0.0000000     15.4750000      4.1270000     16.2820000
    481    481      3      0.0000000     14.1500000      6.5320000      2.4080000
    482    482      3      0.0000000     14.0860000      6.5590000     16.2690000
    483    483      3      0.0000000     12.6530000      8.9780000      2.3830000
    484    484      3      0.0000000     12.6950000      9.0030000     16.2850000
    485    485      3      0.0000000     11.3070000     11.4320000      2.4290000
    486    486      3      0.0000000     11.3110000     11.4230000     16.3440000
    487    487      3      0.0000000      9.8850000     13.8640000      2.3600000
    488    488      3      0.0000000      9.9260000     13.8870000     16.2720000
    489    489      3      0.0000000      8.4570000     16.3250000      2.4230000
    490    490      3      0.0000000      8.4490000     16.3080000     16.2810000
    491    491      3      0.0000000      1.4540000      0.7770000     11.6430000
    492    492      3      0.0000000      1.4600000      0.7810000     25.6240000
    493    493      3      0.0000000     -0.0330000      3.2370000     11.7050000
    494    494      3      0.0000000      0.0170000      3.2900000     25.5680000
    495    495      3      0.0000000     -1.3820000      5.6830000     11.6470000
    496    496      3      0.0000000     -1.4180000      5.6740000     25.4780000
    497    497      3      0.0000000     -2.8310000      8.1270000     11.7170000
    498    498      3      0.0000000     -2.8450000      8.1800000     25.5740000
    499    499      3      0.0000000     -4.2720000     10.5880000     11.6860000
    500    500      3      0.0000000     -4.2160000     10.5670000     25.5350000
    501    501      3      0.0000000     -5.6680000     13.1110000     11.7080000
    502    502      3      0.0000000     -5.6020000     13.0360000     25.5720000
    503    503      3      0.0000000     -7.0890000     15.4500000     11.6290000
    504    504      3      0.0000000     -7.0500000     15.4340000     25.5760000
    505    505      3      0.0000000      4.1970000      0.8020000     11.6610000
    506    506      3      0.0000000      4.2690000      0.8330000     25.6340000
    507    507      3      0.0000000      2.8100000      3.2500000     11.6650000
    508    508      3      0.0000000      2.7850000      3.2130000     25.6030000
    509    509      3      0.0000000      1.4120000      5.7190000     11.6430000
    510    510      3      0.0000000      1.4540000      5.7680000     25.6060000
    511    511      3      0.0000000     -0.0330000      8.2070000     11.7090000
    512    512      3      0.0000000      0.0220000      8.1710000     25.5170000
    513    513      3      0.0000000     -1.4120000     10.6730000     11.7180000
    514    514      3      0.0000000     -1.4230000     10.6070000     25.4670000
    515    515      3      0.0000000     -2.8380000     13.0400000     11.6490000
    516    516      3      0.0000000     -2.8030000     12.9810000     25.4190000
    517    517      3      0.0000000     -4.2830000     15.5700000     11.7110000
    518    518      3      0.0000000     -4.2240000     15.4320000     25.4590000
    519    519      3      0.0000000      7.0590000      0.7980000     11.7350000
    520    520      3      0.0000000      7.0280000      0.8200000     25.4870000
    521    521      3      0.0000000      5.6000000      3.2760000     11.6890000
    522    522      3      0.0000000      5.6760000      3.2860000     25.6190000
    523    523      3      0.0000000      4.1980000      5.6760000     11.4670000
    524    524      3      0.0000000      4.1700000      5.6690000     25.5920000
    525    525      3      0.0000000      2.8850000      8.1320000     11.6340000
    526    526      3      0.0000000      2.8780000      8.1930000     25.6360000
    527    527      3      0.0000000      1.4960000     10.6230000     11.6610000
    528    528      3      0.0000000      1.4620000     10.5460000     25.4740000
    529    529      3      0.0000000      0.0200000     13.0940000     11.6360000
    530    530      3      0.0000000      0.0280000     12.9980000     25.4610000
    531    531      3      0.0000000     -1.4540000     15.5200000     11.5850000
    532    532      3      0.0000000     -1.4570000     15.4860000     25.4870000
    533    533      3      0.0000000      9.8150000      0.7810000     11.6170000
    534    534      3      0.0000000      9.8590000      0.7790000     25.5530000
    535    535      3      0.0000000      8.4180000      3.2680000     11.6570000
    536    536      3      0.0000000      8.4820000      3.2450000     25.6170000
    537    537      3      0.0000000      7.1130000      5.6200000     11.6060000
    538    538      3      0.0000000      7.0520000      5.6510000     25.5570000
    539    539      3      0.0000000      5.6650000      8.1270000     11.5780000
    540    540      3      0.0000000      5.6290000      8.1120000     25.5030000
    541    541      3      0.0000000      4.2910000     10.6370000     11.6210000
    542    542      3      0.0000000      4.3330000     10.6590000     25.5500000
    543    543      3      0.0000000      2.8180000     13.0810000     11.7060000
    544    544      3      0.0000000      2.8140000     13.0400000     25.5190000
    545    545      3      0.0000000      1.4090000     15.4610000     11.6010000
    546    546      3      0.0000000      1.4110000     15.4880000     25.5350000
    547    547      3      0.0000000     12.7230000      0.7940000     11.5850000
    548    548      3      0.0000000     12.6590000      0.7390000     25.5830000
    549    549      3      0.0000000     11.2820000      3.2080000     11.5830000
    550    550      3      0.0000000     11.3200000      3.1500000     25.5550000
    551    551      3      0.0000000      9.9110000      5.6590000     11.6770000
    552    552      3      0.0000000      9.8640000      5.6530000     25.5780000
    553    553      3      0.0000000      8.5230000      8.1070000     11.6160000
    554    554      3      0.0000000      8.4530000      8.0890000     25.5470000
    555    555      3      0.0000000      7.0620000     10.5630000     11.5890000
    556    556      3      0.0000000      7.1090000     10.5760000     25.6620000
    557    557      3      0.0000000      5.6730000     13.0700000     11.7100000
    558    558      3      0.0000000      5.6570000     13.0370000     25.5900000
    559    559      3      0.0000000      4.2570000     15.4560000     11.6180000
    560    560      3      0.0000000      4.2960000     15.4670000     25.5840000
    561    561      3      0.0000000     15.5000000      0.8180000     11.5350000
    562    562      3      0.0000000     15.5320000      0.7780000     25.5570000
    563    563      3      0.0000000     14.0580000      3.2650000     11.6190000
    564    564      3      0.0000000     14.0960000      3.2300000     25.5500000
    565    565      3      0.0000000     12.7170000      5.7040000     11.7070000
    566    566      3      0.0000000     12.6700000      5.6930000     25.4940000
    567    567      3      0.0000000     11.3860000      8.1730000     11.5950000
    568    568      3      0.0000000     11.3070000      8.1290000     25.6020000
    569    569      3      0.0000000      9.9090000     10.5920000     11.7110000
    570    570      3      0.0000000      9.8990000     10.5370000     25.5550000
    571    571      3      0.0000000      8.4510000     13.0000000     11.6290000
    572    572      3      0.0000000      8.4730000     13.0270000     25.5790000
    573    573      3      0.0000000      7.0430000     15.4750000     11.6600000
    574    574      3      0.0000000      7.1160000     15.4770000     25.5070000
    575    575      3      0.0000000     18.3420000      0.7790000     11.6010000
    576    576      3      0.0000000     18.4390000      0.7980000     25.5650000
    577    577      3      0.0000000     16.9170000      3.2420000     11.6930000
    578    578      3      0.0000000     16.9500000      3.2820000     25.6060000
    579    579      3      0.0000000     15.5380000      5.6590000     11.6050000
    580    580      3      0.0000000     15.5630000      5.6620000     25.5420000
    581    581      3      0.0000000     14.1740000      8.1060000     11.6330000
    582    582      3      0.0000000     14.1480000      8.1280000     25.6060000
    583    583      3      0.0000000     12.7280000     10.5590000     11.5670000
    584    584      3      0.0000000     12.7010000     10.5610000     25.5260000
    585    585      3      0.0000000     11.2650000     13.0140000     11.6570000
    586    586      3      0.0000000     11.3270000     12.9870000     25.5710000
    587    587      3      0.0000000      9.8560000     15.5290000     11.6990000
    588    588      3      0.0000000      9.8660000     15.4410000     25.4910000
    589    589      5      0.0000000     -0.0240000      0.0560000      3.4140000
    590    590      5      0.0000000      9.8560000     17.0750000     17.3270000
    591    591      5      0.0000000     18.3490000      2.4440000      3.4500000
    592    592      5      0.0000000     18.2940000      2.4400000     17.3000000
    593    593      5      0.0000000     -2.8300000      4.9510000      3.4520000
    594    594      5      0.0000000     -2.8120000      4.8920000     17.2590000
    595    595      5      0.0000000     15.5170000      7.3600000      3.4200000
    596    596      5      0.0000000     15.5210000      7.3380000     17.2020000
    597    597      5      0.0000000     -5.6140000      9.8720000      3.3540000
    598    598      5      0.0000000     14.1540000      9.7180000     17.3270000
    599    599      5      0.0000000     -7.0340000     12.3250000      3.3400000
    600    600      5      0.0000000     12.6990000     12.2280000     17.3530000
    601    601      5      0.0000000     11.2980000     14.6390000      3.3540000
    602    602      5      0.0000000     11.2330000     14.6660000     17.3180000
    603    603      5      0.0000000     -7.0060000     17.0810000      3.3990000
    604    604      5      0.0000000      2.8520000      0.0320000     17.3730000
    605    605      5      0.0000000      1.4380000      2.3670000      3.3160000
    606    606      5      0.0000000      1.3880000      2.3880000     17.3700000
    607    607      5      0.0000000      0.0730000      4.8870000      3.4080000
    608    608      5      0.0000000     -0.0120000      4.8690000     17.2760000
    609    609      5      0.0000000     -1.4230000      7.3670000      3.3080000
    610    610      5      0.0000000     -1.4000000      7.3450000     17.2640000
    611    611      5      0.0000000     -2.8080000      9.8310000      3.3920000
    612    612      5      0.0000000     -2.8360000      9.7070000     17.3500000
    613    613      5      0.0000000     -4.2310000     12.3220000      3.3360000
    614    614      5      0.0000000     -4.2840000     12.2070000     17.3550000
    615    615      5      0.0000000     -5.6200000     14.7450000      3.4120000
    616    616      5      0.0000000     -5.6040000     14.7170000     17.3020000
    617    617      5      0.0000000      5.6820000      0.0110000      3.3710000
    618    618      5      0.0000000      5.6490000      0.0080000     17.2660000
    619    619      5      0.0000000      4.1520000      2.4660000      3.3690000
    620    620      5      0.0000000      4.2400000      2.4040000     17.2580000
    621    621      5      0.0000000      2.8510000      4.9470000      3.3570000
    622    622      5      0.0000000      2.8870000      4.8610000     17.2930000
    623    623      5      0.0000000      1.3360000      7.3140000      3.3410000
    624    624      5      0.0000000      1.3800000      7.3420000     17.2910000
    625    625      5      0.0000000     -0.0420000      9.7670000      3.3030000
    626    626      5      0.0000000      0.0070000      9.7630000     17.2320000
    627    627      5      0.0000000     -1.4350000     12.1930000      3.3950000
    628    628      5      0.0000000     -1.3960000     12.2060000     17.3300000
    629    629      5      0.0000000     -2.8100000     14.6730000      3.3430000
    630    630      5      0.0000000     -2.8070000     14.6630000     17.2720000
    631    631      5      0.0000000     -1.4130000     17.0950000      3.3380000
    632    632      5      0.0000000      8.4470000      0.0040000     17.3470000
    633    633      5      0.0000000      6.9930000      2.4040000      3.3240000
    634    634      5      0.0000000      7.0140000      2.4510000     17.1960000
    635    635      5      0.0000000      5.6610000      4.9550000      3.4240000
    636    636      5      0.0000000      5.7050000      4.9260000     17.2340000
    637    637      5      0.0000000      4.2500000      7.3890000      3.4030000
    638    638      5      0.0000000      4.2260000      7.3550000     17.3480000
    639    639      5      0.0000000      2.8040000      9.7430000      3.3560000
    640    640      5      0.0000000      2.8190000      9.7120000     17.3530000
    641    641      5      0.0000000      1.3660000     12.2240000      3.2980000
    642    642      5      0.0000000      1.4190000     12.1620000     17.2660000
    643    643      5      0.0000000      0.0600000     14.5260000      3.2340000
    644    644      5      0.0000000      0.0340000     14.6370000     17.3150000
    645    645      5      0.0000000      1.3220000     17.0410000      3.3820000
    646    646      5      0.0000000     11.3090000      0.0110000     17.3240000
    647    647      5      0.0000000      9.7910000      2.4050000      3.4430000
    648    648      5      0.0000000      9.8360000      2.4690000     17.2420000
    649    649      5      0.0000000      8.4680000      4.9330000      3.4060000
    650    650      5      0.0000000      8.4220000      4.8860000     17.1700000
    651    651      5      0.0000000      7.0480000      7.3420000      3.3710000
    652    652      5      0.0000000      7.1020000      7.3880000     17.2660000
    653    653      5      0.0000000      5.6870000      9.7670000      3.4100000
    654    654      5      0.0000000      5.6750000      9.8590000     17.2740000
    655    655      5      0.0000000      4.2340000     12.2150000      3.3190000
    656    656      5      0.0000000      4.2400000     12.2140000     17.2270000
    657    657      5      0.0000000      2.8310000     14.6410000      3.3120000
    658    658      5      0.0000000      2.8120000     14.6260000     17.3510000
    659    659      5      0.0000000      4.1650000     17.0800000      3.4980000
    660    660      5      0.0000000     14.1450000      0.0680000     17.2320000
    661    661      5      0.0000000     12.6930000      2.3980000      3.4530000
    662    662      5      0.0000000     12.6430000      2.4150000     17.2620000
    663    663      5      0.0000000     11.2520000      4.8390000      3.4750000
    664    664      5      0.0000000     11.2600000      4.7930000     17.2310000
    665    665      5      0.0000000      9.8610000      7.4000000      3.3250000
    666    666      5      0.0000000      9.8430000      7.3230000     17.2340000
    667    667      5      0.0000000      8.4450000      9.8050000      3.3740000
    668    668      5      0.0000000      8.4810000      9.8520000     17.3100000
    669    669      5      0.0000000      7.1090000     12.2640000      3.3510000
    670    670      5      0.0000000      7.0060000     12.2750000     17.2140000
    671    671      5      0.0000000      5.6510000     14.7460000      3.3020000
    672    672      5      0.0000000      5.6220000     14.6730000     17.2520000
    673    673      5      0.0000000     16.9430000      0.0510000      3.4270000
    674    674      5      0.0000000      7.0450000     17.0980000     17.2600000
    675    675      5      0.0000000     15.4880000      2.4530000      3.4360000
    676    676      5      0.0000000     15.5180000      2.4860000     17.2340000
    677    677      5      0.0000000     14.0780000      4.9270000      3.4490000
    678    678      5      0.0000000     14.0630000      4.9080000     17.3080000
    679    679      5      0.0000000     12.7480000      7.3620000      3.4290000
    680    680      5      0.0000000     12.6130000      7.3390000     17.2580000
    681    681      5      0.0000000     11.2860000      9.7700000      3.4390000
    682    682      5      0.0000000     11.3420000      9.7710000     17.3020000
    683    683      5      0.0000000      9.8570000     12.2260000      3.3370000
    684    684      5      0.0000000      9.8650000     12.2510000     17.2480000
    685    685      5      0.0000000      8.4690000     14.7340000      3.3180000
    686    686      5      0.0000000      8.4940000     14.6840000     17.2540000
    687    687      5      0.0000000      9.8580000     17.0670000     10.7110000
    688    688      5      0.0000000     -9.8430000     17.0700000     24.6340000
    689    689      5      0.0000000     18.3610000      2.3970000     10.6350000
    690    690      5      0.0000000     -1.3420000      2.4640000     24.5640000
    691    691      5      0.0000000     16.9390000      4.8660000     10.6910000
    692    692      5      0.0000000     -2.8100000      4.8880000     24.5220000
    693    693      5      0.0000000     -4.1230000      7.3270000     10.6050000
    694    694      5      0.0000000     15.5060000      7.3320000     24.5990000
    695    695      5      0.0000000     -5.5720000      9.7350000     10.5520000
    696    696      5      0.0000000     14.1100000      9.7070000     24.5400000
    697    697      5      0.0000000     12.6700000     12.2650000     10.7220000
    698    698      5      0.0000000     -7.0110000     12.2240000     24.5060000
    699    699      5      0.0000000     11.2790000     14.6730000     10.7010000
    700    700      5      0.0000000     11.3090000     14.6410000     24.5680000
    701    701      5      0.0000000     -7.0720000     17.0800000     10.7160000
    702    702      5      0.0000000      2.9030000      0.0230000     24.6040000
    703    703      5      0.0000000      1.4370000      2.4040000     10.6670000
    704    704      5      0.0000000      1.3780000      2.3880000     24.6630000
    705    705      5      0.0000000      0.0090000      4.8200000     10.6890000
    706    706      5      0.0000000      0.0740000      4.8860000     24.5820000
    707    707      5      0.0000000     -1.3920000      7.3390000     10.6650000
    708    708      5      0.0000000     -1.3960000      7.3370000     24.5300000
    709    709      5      0.0000000     -2.8510000      9.8020000     10.7590000
    710    710      5      0.0000000     -2.8190000      9.7400000     24.5450000
    711    711      5      0.0000000     -4.2730000     12.2150000     10.7320000
    712    712      5      0.0000000     -4.1880000     12.1900000     24.4890000
    713    713      5      0.0000000     -5.5870000     14.7320000     10.6490000
    714    714      5      0.0000000     -5.6600000     14.6450000     24.5350000
    715    715      5      0.0000000     -4.3080000     17.1080000     10.7260000
    716    716      5      0.0000000     -4.2870000     17.1070000     24.5600000
    717    717      5      0.0000000      4.1850000      2.4340000     10.6570000
    718    718      5      0.0000000      4.2320000      2.4060000     24.6430000
    719    719      5      0.0000000      2.8070000      4.8730000     10.5750000
    720    720      5      0.0000000      2.8310000      4.8570000     24.6100000
    721    721      5      0.0000000      1.4280000      7.3770000     10.6520000
    722    722      5      0.0000000      1.4520000      7.3810000     24.6050000
    723    723      5      0.0000000     -0.0310000      9.8420000     10.6760000
    724    724      5      0.0000000      0.0300000      9.7610000     24.5180000
    725    725      5      0.0000000     -1.4150000     12.2800000     10.6570000
    726    726      5      0.0000000     -1.4290000     12.2350000     24.4650000
    727    727      5      0.0000000     -2.8600000     14.6950000     10.6830000
    728    728      5      0.0000000     -2.8850000     14.6490000     24.4840000
    729    729      5      0.0000000      8.3650000      0.0170000     10.6750000
    730    730      5      0.0000000      8.4620000      0.0100000     24.4610000
    731    731      5      0.0000000      7.0270000      2.4060000     10.7070000
    732    732      5      0.0000000      7.0430000      2.4700000     24.6060000
    733    733      5      0.0000000      5.6710000      4.8130000     10.6140000
    734    734      5      0.0000000      5.6680000      4.8870000     24.5330000
    735    735      5      0.0000000      4.2550000      7.3500000     10.5900000
    736    736      5      0.0000000      4.1630000      7.2890000     24.6270000
    737    737      5      0.0000000      2.8640000      9.8220000     10.6450000
    738    738      5      0.0000000      2.9660000      9.7540000     24.6390000
    739    739      5      0.0000000      1.4440000     12.2520000     10.6880000
    740    740      5      0.0000000      1.4790000     12.2340000     24.5230000
    741    741      5      0.0000000     -0.0340000     14.6560000     10.6110000
    742    742      5      0.0000000     -0.0350000     14.6960000     24.5420000
    743    743      5      0.0000000      1.3610000     17.0140000     10.5890000
    744    744      5      0.0000000      1.4030000     17.0640000     24.5210000
    745    745      5      0.0000000      9.8710000      2.4190000     10.6290000
    746    746      5      0.0000000      9.8990000      2.4220000     24.6040000
    747    747      5      0.0000000      8.5030000      4.8450000     10.6640000
    748    748      5      0.0000000      8.4720000      4.8600000     24.5890000
    749    749      5      0.0000000      7.0910000      7.3260000     10.6550000
    750    750      5      0.0000000      7.0400000      7.3560000     24.5310000
    751    751      5      0.0000000      5.6450000      9.7610000     10.6160000
    752    752      5      0.0000000      5.7080000      9.8280000     24.6240000
    753    753      5      0.0000000      4.1860000     12.2950000     10.6770000
    754    754      5      0.0000000      4.2590000     12.2950000     24.4610000
    755    755      5      0.0000000      2.8580000     14.6370000     10.6240000
    756    756      5      0.0000000      2.9280000     14.6810000     24.5320000
    757    757      5      0.0000000      4.1850000     17.0490000     10.5740000
    758    758      5      0.0000000     14.0880000      0.0020000     24.5880000
    759    759      5      0.0000000     12.6350000      2.3870000     10.5940000
    760    760      5      0.0000000     12.6850000      2.4130000     24.5630000
    761    761      5      0.0000000     11.3030000      4.8450000     10.6860000
    762    762      5      0.0000000     11.3110000      4.7810000     24.5280000
    763    763      5      0.0000000      9.9030000      7.2940000     10.6650000
    764    764      5      0.0000000      9.9590000      7.2840000     24.5640000
    765    765      5      0.0000000      8.5040000      9.7670000     10.5780000
    766    766      5      0.0000000      8.4710000      9.7330000     24.6060000
    767    767      5      0.0000000      6.9900000     12.2140000     10.7370000
    768    768      5      0.0000000      7.0980000     12.1990000     24.6010000
    769    769      5      0.0000000      5.6780000     14.6300000     10.6680000
    770    770      5      0.0000000      5.7030000     14.7010000     24.6220000
    771    771      5      0.0000000      7.0470000     17.1140000     10.5700000
    772    772      5      0.0000000      7.0580000     17.0820000     24.5500000
    773    773      5      0.0000000     15.4990000      2.4270000     10.6500000
    774    774      5      0.0000000     15.4920000      2.4960000     24.5780000
    775    775      5      0.0000000     14.1070000      4.8260000     10.6830000
    776    776      5      0.0000000     14.0900000      4.8270000     24.5460000
    777    777      5      0.0000000     12.7480000      7.2820000     10.6320000
    778    778      5      0.0000000     12.7110000      7.3800000     24.5580000
    779    779      5      0.0000000     11.3010000      9.7960000     10.6370000
    780    780      5      0.0000000     11.3140000      9.7420000     24.5370000
    781    781      5      0.0000000      9.8950000     12.2090000     10.6590000
    782    782      5      0.0000000      9.9400000     12.2180000     24.5930000
    783    783      5      0.0000000      8.4480000     14.6300000     10.6790000
    784    784      5      0.0000000      8.5290000     14.5970000     24.5460000
    785    785      5      0.0000000      0.0290000      1.5930000     12.6280000
    786    786      5      0.0000000      0.0700000      1.6320000     26.5860000
    787    787      5      0.0000000     -1.4310000      4.0710000     12.6510000
    788    788      5      0.0000000     -1.3970000      4.0330000     26.5730000
    789    789      5      0.0000000     -2.8110000      6.5190000     12.6280000
    790    790      5      0.0000000     -2.8360000      6.4930000     26.4570000
    791    791      5      0.0000000     -4.2910000      8.8940000     12.6730000
    792    792      5      0.0000000     -4.2330000      8.9840000     26.5640000
    793    793      5      0.0000000     -5.7040000     11.3470000     12.6370000
    794    794      5      0.0000000     -5.6320000     11.3680000     26.4830000
    795    795      5      0.0000000     -7.1120000     13.9120000     12.7030000
    796    796      5      0.0000000     -7.0120000     13.7670000     26.5510000
    797    797      5      0.0000000     -8.4810000     16.3350000     12.6810000
    798    798      5      0.0000000     -8.4440000     16.1820000     26.5180000
    799    799      5      0.0000000      2.8170000      1.6620000     12.6340000
    800    800      5      0.0000000      2.8700000      1.6430000     26.5850000
    801    801      5      0.0000000      1.3430000      4.1090000     12.6490000
    802    802      5      0.0000000      1.4530000      4.1080000     26.5990000
    803    803      5      0.0000000      0.0140000      6.5150000     12.6270000
    804    804      5      0.0000000      0.0070000      6.5310000     26.5520000
    805    805      5      0.0000000     -1.4320000      8.9950000     12.6630000
    806    806      5      0.0000000     -1.3800000      8.9860000     26.4760000
    807    807      5      0.0000000     -2.8540000     11.4190000     12.6540000
    808    808      5      0.0000000     -2.7800000     11.4180000     26.5410000
    809    809      5      0.0000000     -4.2900000     13.9030000     12.7080000
    810    810      5      0.0000000     -4.2390000     13.8420000     26.5260000
    811    811      5      0.0000000     -5.7560000     16.2850000     12.6870000
    812    812      5      0.0000000     -5.5970000     16.2700000     26.5330000
    813    813      5      0.0000000      5.5910000      1.6140000     12.6570000
    814    814      5      0.0000000      5.7170000      1.6580000     26.5760000
    815    815      5      0.0000000      4.1850000      4.1030000     12.6580000
    816    816      5      0.0000000      4.2570000      4.0420000     26.5460000
    817    817      5      0.0000000      2.8830000      6.5030000     12.5440000
    818    818      5      0.0000000      2.8680000      6.5500000     26.5870000
    819    819      5      0.0000000      1.3940000      8.9560000     12.6770000
    820    820      5      0.0000000      1.4090000      9.0290000     26.5480000
    821    821      5      0.0000000      0.0960000     11.4740000     12.6860000
    822    822      5      0.0000000     -0.0050000     11.3830000     26.3780000
    823    823      5      0.0000000     -1.4320000     13.9040000     12.6460000
    824    824      5      0.0000000     -1.4210000     13.8680000     26.4790000
    825    825      5      0.0000000     -2.8360000     16.3460000     12.6760000
    826    826      5      0.0000000     -2.8000000     16.2810000     26.4850000
    827    827      5      0.0000000      8.4800000      1.6190000     12.6510000
    828    828      5      0.0000000      8.4230000      1.6220000     26.4990000
    829    829      5      0.0000000      6.9570000      4.0870000     12.7120000
    830    830      5      0.0000000      7.1160000      4.0650000     26.5960000
    831    831      5      0.0000000      5.6880000      6.4100000     12.5880000
    832    832      5      0.0000000      5.6400000      6.5150000     26.5070000
    833    833      5      0.0000000      4.2660000      8.9880000     12.6640000
    834    834      5      0.0000000      4.3060000      9.0260000     26.5440000
    835    835      5      0.0000000      2.9390000     11.3860000     12.6290000
    836    836      5      0.0000000      2.8320000     11.3930000     26.5360000
    837    837      5      0.0000000      1.3990000     13.8660000     12.7050000
    838    838      5      0.0000000      1.4160000     13.8620000     26.4900000
    839    839      5      0.0000000     -0.0690000     16.3200000     12.6520000
    840    840      5      0.0000000      0.0140000     16.3000000     26.4770000
    841    841      5      0.0000000     11.2930000      1.5250000     12.5090000
    842    842      5      0.0000000     11.3130000      1.5040000     26.5900000
    843    843      5      0.0000000      9.8540000      3.9910000     12.6670000
    844    844      5      0.0000000      9.9750000      4.0340000     26.5020000
    845    845      5      0.0000000      8.5140000      6.4490000     12.6360000
    846    846      5      0.0000000      8.4300000      6.4530000     26.5910000
    847    847      5      0.0000000      7.0660000      8.9370000     12.6160000
    848    848      5      0.0000000      7.1160000      8.9170000     26.5540000
    849    849      5      0.0000000      5.7210000     11.3770000     12.5750000
    850    850      5      0.0000000      5.7230000     11.4310000     26.5390000
    851    851      5      0.0000000      4.2060000     13.8810000     12.7020000
    852    852      5      0.0000000      4.2730000     13.8280000     26.5720000
    853    853      5      0.0000000      2.8270000     16.2580000     12.5740000
    854    854      5      0.0000000      2.8710000     16.2190000     26.5650000
    855    855      5      0.0000000     14.0980000      1.6300000     12.5850000
    856    856      5      0.0000000     14.1530000      1.5910000     26.5200000
    857    857      5      0.0000000     12.6640000      3.9820000     12.6200000
    858    858      5      0.0000000     12.7260000      4.0390000     26.5840000
    859    859      5      0.0000000     11.3160000      6.5250000     12.6410000
    860    860      5      0.0000000     11.2780000      6.4720000     26.5890000
    861    861      5      0.0000000      9.9130000      8.8690000     12.6250000
    862    862      5      0.0000000      9.8900000      8.9020000     26.6040000
    863    863      5      0.0000000      8.5220000     11.3540000     12.6400000
    864    864      5      0.0000000      8.5360000     11.4380000     26.5740000
    865    865      5      0.0000000      7.0760000     13.8600000     12.6910000
    866    866      5      0.0000000      7.0850000     13.8420000     26.5640000
    867    867      5      0.0000000      5.6110000     16.2950000     12.6500000
    868    868      5      0.0000000      5.7170000     16.2160000     26.5410000
    869    869      5      0.0000000     16.9330000      1.6250000     12.5830000
    870    870      5      0.0000000     16.9840000      1.5840000     26.4790000
    871    871      5      0.0000000     15.4780000      4.0830000     12.6210000
    872    872      5      0.0000000     15.4850000      4.0400000     26.5390000
    873    873      5      0.0000000     14.1530000      6.5260000     12.6640000
    874    874      5      0.0000000     14.0950000      6.4460000     26.5440000
    875    875      5      0.0000000     12.7490000      8.9410000     12.5830000
    876    876      5      0.0000000     12.7220000      8.9430000     26.5690000
    877    877      5      0.0000000     11.3560000     11.3400000     12.6620000
    878    878      5      0.0000000     11.3370000     11.3350000     26.5440000
    879    879      5      0.0000000      9.8200000     13.8610000     12.6760000
    880    880      5      0.0000000      9.9390000     13.8360000     26.6200000
    881    881      5      0.0000000      8.4120000     16.3480000     12.6370000
    882    882      5      0.0000000      8.5090000     16.2870000     26.5480000
    883    883      5      0.0000000      0.0140000      1.6260000      6.0150000
    884    884      5      0.0000000     -0.0050000      1.5100000     20.0230000
    885    885      5      0.0000000     -1.3750000      4.0850000      5.9980000
    886    886      5      0.0000000     -1.4810000      4.0570000     19.8960000
    887    887      5      0.0000000     -2.7790000      6.5970000      5.9920000
    888    888      5      0.0000000     -2.9420000      6.4820000     19.8510000
    889    889      5      0.0000000     -4.1800000      9.0140000      6.0550000
    890    890      5      0.0000000     -4.2680000      8.9810000     19.9330000
    891    891      5      0.0000000     -5.6230000     11.4190000      5.9820000
    892    892      5      0.0000000     -5.7130000     11.3360000     19.9250000
    893    893      5      0.0000000     -7.0470000     13.8240000      6.0350000
    894    894      5      0.0000000     -6.9890000     13.8650000     19.9650000
    895    895      5      0.0000000     -8.4200000     16.3110000      6.0160000
    896    896      5      0.0000000     -8.4750000     16.2890000     20.0180000
    897    897      5      0.0000000      2.7670000      1.6280000      6.1430000
    898    898      5      0.0000000      2.7960000      1.5600000     20.0090000
    899    899      5      0.0000000      1.4050000      4.1380000      6.0380000
    900    900      5      0.0000000      1.3390000      4.0600000     19.9490000
    901    901      5      0.0000000     -0.0010000      6.5250000      6.0400000
    902    902      5      0.0000000     -0.0870000      6.5360000     19.8890000
    903    903      5      0.0000000     -1.3660000      8.9630000      6.0770000
    904    904      5      0.0000000     -1.5170000      8.9230000     19.9570000
    905    905      5      0.0000000     -2.7710000     11.4620000      6.0100000
    906    906      5      0.0000000     -2.9160000     11.3650000     19.9520000
    907    907      5      0.0000000     -4.1980000     13.8230000      6.0210000
    908    908      5      0.0000000     -4.2520000     13.9110000     19.8940000
    909    909      5      0.0000000     -5.6710000     16.3160000      6.1730000
    910    910      5      0.0000000     -5.6260000     16.3320000     19.9750000
    911    911      5      0.0000000      5.5520000      1.6920000      6.0360000
    912    912      5      0.0000000      5.6590000      1.6880000     19.8950000
    913    913      5      0.0000000      4.2410000      4.0870000      6.0160000
    914    914      5      0.0000000      4.1470000      4.0880000     19.9470000
    915    915      5      0.0000000      2.8820000      6.5580000      6.0580000
    916    916      5      0.0000000      2.7770000      6.5210000     19.8160000
    917    917      5      0.0000000      1.4320000      8.9550000      6.0730000
    918    918      5      0.0000000      1.3860000      8.9570000     19.9430000
    919    919      5      0.0000000      0.0080000     11.4180000      5.9590000
    920    920      5      0.0000000     -0.0250000     11.3860000     19.9880000
    921    921      5      0.0000000     -1.3670000     13.8730000      5.9800000
    922    922      5      0.0000000     -1.4200000     13.8120000     19.8530000
    923    923      5      0.0000000     -2.8880000     16.3520000      6.0510000
    924    924      5      0.0000000     -2.8250000     16.3960000     19.9390000
    925    925      5      0.0000000      8.4110000      1.6400000      5.9940000
    926    926      5      0.0000000      8.4960000      1.6510000     19.9260000
    927    927      5      0.0000000      7.0440000      4.1270000      6.0590000
    928    928      5      0.0000000      7.0360000      4.1000000     19.9050000
    929    929      5      0.0000000      5.6420000      6.4950000      6.0780000
    930    930      5      0.0000000      5.6750000      6.4950000     19.8630000
    931    931      5      0.0000000      4.2450000      9.0580000      6.0450000
    932    932      5      0.0000000      4.1890000      9.0060000     19.9760000
    933    933      5      0.0000000      2.8820000     11.3790000      6.0300000
    934    934      5      0.0000000      2.7840000     11.5190000     19.8760000
    935    935      5      0.0000000      1.4210000     13.9670000      5.9850000
    936    936      5      0.0000000      1.3880000     13.8370000     19.9130000
    937    937      5      0.0000000     -0.0520000     16.2920000      5.9390000
    938    938      5      0.0000000     -0.0360000     16.2960000     19.9970000
    939    939      5      0.0000000     11.2670000      1.6650000      6.0080000
    940    940      5      0.0000000     11.3100000      1.6420000     19.9100000
    941    941      5      0.0000000      9.9350000      4.1110000      5.9920000
    942    942      5      0.0000000      9.8910000      4.0580000     19.8180000
    943    943      5      0.0000000      8.4650000      6.5440000      6.0380000
    944    944      5      0.0000000      8.5240000      6.5530000     19.8360000
    945    945      5      0.0000000      7.0380000      8.9180000      6.0210000
    946    946      5      0.0000000      7.0170000      8.9480000     19.8810000
    947    947      5      0.0000000      5.6710000     11.4130000      6.0050000
    948    948      5      0.0000000      5.5870000     11.3700000     19.9320000
    949    949      5      0.0000000      4.2510000     13.8020000      6.0100000
    950    950      5      0.0000000      4.2170000     13.9010000     19.8850000
    951    951      5      0.0000000      2.8310000     16.3630000      6.1270000
    952    952      5      0.0000000      2.7920000     16.3230000     19.8770000
    953    953      5      0.0000000     14.1120000      1.6750000      6.0010000
    954    954      5      0.0000000     14.0740000      1.5990000     19.8380000
    955    955      5      0.0000000     12.7280000      4.1590000      6.0190000
    956    956      5      0.0000000     12.6930000      4.0980000     19.9390000
    957    957      5      0.0000000     11.3770000      6.5720000      5.9630000
    958    958      5      0.0000000     11.3250000      6.5250000     19.8520000
    959    959      5      0.0000000      9.9190000      8.9840000      5.9810000
    960    960      5      0.0000000      9.8840000      8.9440000     19.8600000
    961    961      5      0.0000000      8.5090000     11.3810000      5.9780000
    962    962      5      0.0000000      8.4870000     11.3460000     19.9970000
    963    963      5      0.0000000      7.0860000     13.8780000      5.9990000
    964    964      5      0.0000000      7.0790000     13.6930000     19.9000000
    965    965      5      0.0000000      5.6410000     16.3130000      6.0390000
    966    966      5      0.0000000      5.6100000     16.3100000     19.9140000
    967    967      5      0.0000000     16.9280000      1.6040000      6.0490000
    968    968      5      0.0000000     16.9340000      1.6050000     19.9790000
    969    969      5      0.0000000     15.5460000      4.1570000      5.9920000
    970    970      5      0.0000000     15.5170000      3.9910000     19.8650000
    971    971      5      0.0000000     14.1530000      6.5940000      6.0630000
    972    972      5      0.0000000     14.0970000      6.3850000     19.8850000
    973    973      5      0.0000000     12.7510000      9.0030000      6.0290000
    974    974      5      0.0000000     12.7600000      8.9510000     19.9240000
    975    975      5      0.0000000     11.3620000     11.3880000      6.1410000
    976    976      5      0.0000000     11.3160000     11.4250000     19.8490000
    977    977      5      0.0000000      9.8920000     13.8240000      6.0450000
    978    978      5      0.0000000      9.9290000     13.8100000     19.8800000
    979    979      5      0.0000000      8.4780000     16.2880000      6.0070000
    980    980      5      0.0000000      8.4450000     16.2820000     20.0190000
    981    981      5      0.0000000      1.4250000      0.8190000      8.0450000
    982    982      5      0.0000000      1.3930000      0.7680000     22.0950000
    983    983      5      0.0000000     -0.0710000      3.2800000      8.0280000
    984    984      5      0.0000000      0.0140000      3.2280000     21.9200000
    985    985      5      0.0000000     -1.3670000      5.7200000      7.9830000
    986    986      5      0.0000000     -1.4930000      5.6820000     21.8180000
    987    987      5      0.0000000     -2.7470000      8.2390000      8.0280000
    988    988      5      0.0000000     -2.9530000      8.1170000     21.9200000
    989    989      5      0.0000000     -4.1990000     10.6390000      7.9750000
    990    990      5      0.0000000     -4.2660000     10.6500000     21.8930000
    991    991      5      0.0000000     -5.5470000     13.0530000      8.0790000
    992    992      5      0.0000000     -5.6930000     13.0270000     21.8970000
    993    993      5      0.0000000     -7.0720000     15.4220000      8.0890000
    994    994      5      0.0000000     -7.0030000     15.4860000     21.9950000
    995    995      5      0.0000000      4.2500000      0.8340000      8.0710000
    996    996      5      0.0000000      4.2550000      0.8660000     21.9750000
    997    997      5      0.0000000      2.7830000      3.3300000      8.0280000
    998    998      5      0.0000000      2.7570000      3.3050000     21.8610000
    999    999      5      0.0000000      1.3760000      5.7640000      8.0030000
   1000   1000      5      0.0000000      1.4040000      5.7490000     21.8970000
   1001   1001      5      0.0000000      0.0800000      8.2400000      8.0510000
   1002   1002      5      0.0000000     -0.1120000      8.0910000     21.9090000
   1003   1003      5      0.0000000     -1.3590000     10.6500000      8.0200000
   1004   1004      5      0.0000000     -1.4510000     10.5250000     21.9800000
   1005   1005      5      0.0000000     -2.7990000     13.0710000      8.0340000
   1006   1006      5      0.0000000     -2.9400000     13.1010000     21.8890000
   1007   1007      5      0.0000000     -4.2070000     15.4450000      7.9840000
   1008   1008      5      0.0000000     -4.1620000     15.5480000     21.9190000
   1009   1009      5      0.0000000      7.1040000      0.8620000      7.9520000
   1010   1010      5      0.0000000      7.0340000      0.8820000     21.9050000
   1011   1011      5      0.0000000      5.6200000      3.2890000      8.0600000
   1012   1012      5      0.0000000      5.6530000      3.2670000     21.9130000
   1013   1013      5      0.0000000      4.2590000      5.7570000      8.0640000
   1014   1014      5      0.0000000      4.2150000      5.7950000     21.8810000
   1015   1015      5      0.0000000      2.8360000      8.1750000      8.0480000
   1016   1016      5      0.0000000      2.7340000      8.1860000     21.9560000
   1017   1017      5      0.0000000      1.4080000     10.7080000      8.0710000
   1018   1018      5      0.0000000      1.3930000     10.6210000     21.9310000
   1019   1019      5      0.0000000      0.0070000     13.0880000      8.0310000
   1020   1020      5      0.0000000     -0.0080000     13.0290000     21.8910000
   1021   1021      5      0.0000000     -1.3970000     15.4850000      7.9400000
   1022   1022      5      0.0000000     -1.4220000     15.4860000     21.8790000
   1023   1023      5      0.0000000      9.8600000      0.8310000      7.9670000
   1024   1024      5      0.0000000      9.9680000      0.8260000     21.8900000
   1025   1025      5      0.0000000      8.4800000      3.2600000      7.9550000
   1026   1026      5      0.0000000      8.5080000      3.2650000     21.9040000
   1027   1027      5      0.0000000      7.0570000      5.7140000      8.0160000
   1028   1028      5      0.0000000      7.0730000      5.7500000     21.8620000
   1029   1029      5      0.0000000      5.6900000      8.1940000      7.9430000
   1030   1030      5      0.0000000      5.6360000      8.1140000     21.8460000
   1031   1031      5      0.0000000      4.3040000     10.6100000      8.0640000
   1032   1032      5      0.0000000      4.2460000     10.6050000     21.9670000
   1033   1033      5      0.0000000      2.8340000     13.1130000      7.9800000
   1034   1034      5      0.0000000      2.8340000     13.0360000     21.8430000
   1035   1035      5      0.0000000      1.3020000     15.5320000      8.0360000
   1036   1036      5      0.0000000      1.4330000     15.5290000     21.9020000
   1037   1037      5      0.0000000     12.7040000      0.8980000      8.0160000
   1038   1038      5      0.0000000     12.7270000      0.7460000     21.8660000
   1039   1039      5      0.0000000     11.2380000      3.3500000      8.0210000
   1040   1040      5      0.0000000     11.2960000      3.2740000     21.8450000
   1041   1041      5      0.0000000      9.9540000      5.7890000      7.9620000
   1042   1042      5      0.0000000      9.8170000      5.7470000     21.8400000
   1043   1043      5      0.0000000      8.5050000      8.1920000      7.9860000
   1044   1044      5      0.0000000      8.4430000      8.1990000     21.9240000
   1045   1045      5      0.0000000      7.0810000     10.5780000      8.0020000
   1046   1046      5      0.0000000      7.0430000     10.6060000     21.8780000
   1047   1047      5      0.0000000      5.6270000     13.0350000      7.9900000
   1048   1048      5      0.0000000      5.6880000     13.0570000     21.8420000
   1049   1049      5      0.0000000      4.2250000     15.4500000      7.9760000
   1050   1050      5      0.0000000      4.2060000     15.4180000     21.9040000
   1051   1051      5      0.0000000     15.5910000      0.8590000      7.9950000
   1052   1052      5      0.0000000     15.4490000      0.8320000     21.8800000
   1053   1053      5      0.0000000     14.1040000      3.3320000      7.9450000
   1054   1054      5      0.0000000     14.0790000      3.2770000     21.8750000
   1055   1055      5      0.0000000     12.7650000      5.7650000      8.0400000
   1056   1056      5      0.0000000     12.6600000      5.7240000     21.9470000
   1057   1057      5      0.0000000     11.3210000      8.1430000      7.9780000
   1058   1058      5      0.0000000     11.3050000      8.1460000     21.8770000
   1059   1059      5      0.0000000      9.9440000     10.5310000      7.9910000
   1060   1060      5      0.0000000      9.8900000     10.5840000     21.8770000
   1061   1061      5      0.0000000      8.5330000     12.9840000      7.9900000
   1062   1062      5      0.0000000      8.5070000     13.0150000     21.9270000
   1063   1063      5      0.0000000      7.0950000     15.5090000      8.0250000
   1064   1064      5      0.0000000      7.0160000     15.4350000     21.9050000
   1065   1065      5      0.0000000     18.3490000      0.8180000      8.0000000
   1066   1066      5      0.0000000     18.3010000      0.7820000     22.0210000
   1067   1067      5      0.0000000     16.9690000      3.2950000      7.9330000
   1068   1068      5      0.0000000     16.8680000      3.2220000     21.8570000
   1069   1069      5      0.0000000     15.5900000      5.7550000      8.0110000
   1070   1070      5      0.0000000     15.5020000      5.7000000     21.8400000
   1071   1071      5      0.0000000     14.1070000      8.1500000      7.9880000
   1072   1072      5      0.0000000     14.0950000      8.1220000     21.8550000
   1073   1073      5      0.0000000     12.7750000     10.6400000      8.0330000
   1074   1074      5      0.0000000     12.6350000     10.6120000     21.9340000
   1075   1075      5      0.0000000     11.2890000     13.0510000      8.0330000
   1076   1076      5      0.0000000     11.2440000     13.0210000     21.8790000
   1077   1077      5      0.0000000      9.8490000     15.4820000      8.0510000
   1078   1078      5      0.0000000      9.8540000     15.4470000     22.0000000
   1079   1079      5      0.0000000      1.4420000      0.7370000      1.3680000
   1080   1080      5      0.0000000      1.3740000      0.8140000     15.3470000
   1081   1081      5      0.0000000     -0.0470000      3.3460000      1.4320000
   1082   1082      5      0.0000000      0.0150000      3.2080000     15.2870000
   1083   1083      5      0.0000000     -1.4360000      5.6830000      1.3950000
   1084   1084      5      0.0000000     -1.4160000      5.7070000     15.2680000
   1085   1085      5      0.0000000     -2.8210000      8.1280000      1.3550000
   1086   1086      5      0.0000000     -2.8420000      8.2140000     15.2250000
   1087   1087      5      0.0000000     -4.2170000     10.6130000      1.4030000
   1088   1088      5      0.0000000     -4.2580000     10.6650000     15.3370000
   1089   1089      5      0.0000000     -5.6660000     13.1050000      1.3560000
   1090   1090      5      0.0000000     -5.5960000     13.0330000     15.3580000
   1091   1091      5      0.0000000     -7.1020000     15.5050000      1.4120000
   1092   1092      5      0.0000000     -7.0720000     15.5090000     15.4030000
   1093   1093      5      0.0000000      4.2150000      0.7940000      1.3640000
   1094   1094      5      0.0000000      4.2330000      0.7760000     15.2950000
   1095   1095      5      0.0000000      2.7570000      3.3070000      1.3540000
   1096   1096      5      0.0000000      2.8480000      3.1640000     15.3120000
   1097   1097      5      0.0000000      1.4450000      5.7270000      1.3410000
   1098   1098      5      0.0000000      1.4640000      5.6560000     15.3600000
   1099   1099      5      0.0000000      0.0030000      8.1250000      1.3680000
   1100   1100      5      0.0000000      0.0280000      8.1450000     15.2740000
   1101   1101      5      0.0000000     -1.4630000     10.5990000      1.3580000
   1102   1102      5      0.0000000     -1.4280000     10.6080000     15.2820000
   1103   1103      5      0.0000000     -2.8580000     13.1050000      1.3270000
   1104   1104      5      0.0000000     -2.7620000     13.0190000     15.3520000
   1105   1105      5      0.0000000     -4.2430000     15.5200000      1.3670000
   1106   1106      5      0.0000000     -4.1910000     15.4350000     15.3230000
   1107   1107      5      0.0000000      7.0660000      0.8390000      1.3140000
   1108   1108      5      0.0000000      7.1030000      0.7310000     15.3270000
   1109   1109      5      0.0000000      5.6360000      3.2540000      1.4000000
   1110   1110      5      0.0000000      5.6390000      3.1930000     15.2420000
   1111   1111      5      0.0000000      4.2290000      5.7760000      1.4020000
   1112   1112      5      0.0000000      4.2590000      5.7190000     15.3220000
   1113   1113      5      0.0000000      2.8640000      8.1700000      1.4150000
   1114   1114      5      0.0000000      2.8440000      8.1720000     15.2720000
   1115   1115      5      0.0000000      1.3650000     10.5580000      1.3140000
   1116   1116      5      0.0000000      1.4290000     10.5000000     15.3360000
   1117   1117      5      0.0000000     -0.0810000     12.9060000      1.2510000
   1118   1118      5      0.0000000      0.0240000     12.9920000     15.3010000
   1119   1119      5      0.0000000     -1.4250000     15.4670000      1.3410000
   1120   1120      5      0.0000000     -1.4090000     15.4550000     15.3390000
   1121   1121      5      0.0000000      9.8600000      0.7950000      1.4150000
   1122   1122      5      0.0000000      9.8640000      0.7330000     15.3040000
   1123   1123      5      0.0000000      8.4760000      3.2740000      1.4600000
   1124   1124      5      0.0000000      8.4430000      3.2660000     15.2810000
   1125   1125      5      0.0000000      7.0640000      5.7120000      1.3660000
   1126   1126      5      0.0000000      7.0330000      5.7640000     15.1680000
   1127   1127      5      0.0000000      5.7140000      8.1530000      1.4350000
   1128   1128      5      0.0000000      5.6930000      8.1790000     15.2800000
   1129   1129      5      0.0000000      4.2450000     10.5650000      1.4280000
   1130   1130      5      0.0000000      4.2780000     10.5520000     15.3080000
   1131   1131      5      0.0000000      2.9020000     12.9960000      1.3420000
   1132   1132      5      0.0000000      2.8270000     12.9880000     15.2810000
   1133   1133      5      0.0000000      1.4030000     15.4550000      1.3920000
   1134   1134      5      0.0000000      1.4530000     15.4610000     15.4030000
   1135   1135      5      0.0000000     12.7790000      0.8260000      1.4660000
   1136   1136      5      0.0000000     12.7400000      0.7790000     15.2380000
   1137   1137      5      0.0000000     11.2640000      3.1780000      1.4630000
   1138   1138      5      0.0000000     11.3000000      3.2290000     15.2460000
   1139   1139      5      0.0000000      9.8910000      5.6590000      1.4310000
   1140   1140      5      0.0000000      9.9080000      5.6580000     15.2690000
   1141   1141      5      0.0000000      8.4300000      8.1660000      1.3540000
   1142   1142      5      0.0000000      8.3860000      8.1660000     15.2530000
   1143   1143      5      0.0000000      7.0530000     10.6820000      1.2920000
   1144   1144      5      0.0000000      7.0030000     10.6280000     15.2680000
   1145   1145      5      0.0000000      5.6470000     13.0440000      1.3960000
   1146   1146      5      0.0000000      5.6640000     13.0680000     15.1280000
   1147   1147      5      0.0000000      4.2060000     15.5590000      1.3650000
   1148   1148      5      0.0000000      4.2070000     15.4970000     15.3280000
   1149   1149      5      0.0000000     15.5550000      0.8950000      1.4790000
   1150   1150      5      0.0000000     15.5090000      0.7920000     15.2860000
   1151   1151      5      0.0000000     14.0910000      3.2980000      1.4160000
   1152   1152      5      0.0000000     14.0950000      3.2380000     15.2860000
   1153   1153      5      0.0000000     12.6870000      5.6840000      1.4040000
   1154   1154      5      0.0000000     12.6220000      5.6750000     15.2780000
   1155   1155      5      0.0000000     11.2830000      8.1010000      1.4160000
   1156   1156      5      0.0000000     11.3100000      8.1290000     15.2660000
   1157   1157      5      0.0000000      9.8980000     10.5840000      1.4050000
   1158   1158      5      0.0000000      9.8770000     10.5630000     15.2840000
   1159   1159      5      0.0000000      8.4720000     13.0470000      1.3860000
   1160   1160      5      0.0000000      8.5080000     13.0740000     15.3090000
   1161   1161      5      0.0000000      7.0760000     15.5830000      1.3540000
   1162   1162      5      0.0000000      7.0220000     15.5170000     15.2680000
   1163   1163      5      0.0000000     18.3680000      0.8850000      1.4040000
   1164   1164      5      0.0000000     18.2950000      0.8260000     15.3230000
   1165   1165      5      0.0000000     16.8900000      3.3150000      1.4480000
   1166   1166      5      0.0000000     16.8990000      3.2440000     15.3150000
   1167   1167      5      0.0000000     15.5220000      5.7370000      1.4740000
   1168   1168      5      0.0000000     15.4800000      5.7300000     15.2670000
   1169   1169      5      0.0000000     14.0970000      8.1910000      1.4240000
   1170   1170      5      0.0000000     14.0690000      8.1850000     15.3160000
   1171   1171      5      0.0000000     12.6830000     10.6240000      1.3990000
   1172   1172      5      0.0000000     12.7390000     10.6100000     15.3460000
   1173   1173      5      0.0000000     11.2380000     13.0500000      1.3730000
   1174   1174      5      0.0000000     11.3610000     13.0620000     15.2580000
   1175   1175      5      0.0000000      9.8970000     15.5700000      1.3710000
   1176   1176      5      0.0000000      9.9020000     15.5210000     15.2610000
