LAMMPS (8 Feb 2023)
WARNING: Using I/O redirection is unreliable with parallel runs. Better to use the -in switch to read input files. (src/lammps.cpp:531)
OMP_NUM_THREADS environment is not set. Defaulting to 1 thread. (src/comm.cpp:98)
  using 1 OpenMP thread(s) per MPI task
units metal
atom_style full
boundary p p p
read_data /tmp/mustard.7c1d4bb0cc944205b8df9dddf0e63748
Reading data file ...
  triclinic box = (0 0 0) to (25.319 25.319 25.319) with tilt (0 0 0)
  2 by 2 by 2 MPI processor grid
  reading atoms ...
  1081 atoms
  reading velocities ...
  1081 velocities
  scanning bonds ...
  1 = max bonds/atom
  reading bonds ...
  1 bonds
Finding 1-2 1-3 1-4 neighbors ...
  special bond factors lj:    0        0        0       
  special bond factors coul:  0        0        0       
     1 = max # of 1-2 neighbors
     0 = max # of 1-3 neighbors
     0 = max # of 1-4 neighbors
     1 = max # of special neighbors
  special bonds CPU = 0.000 seconds
  read_data CPU = 0.007 seconds
include ff.lmp
##############################################################################################
#### Atoms' types - mass - charge
##############################################################################################
#@ 7   atom types

variable Ba  equal 1
variable Zr  equal 2
variable  Y  equal 3
variable O1  equal 4
variable O2  equal 5
variable O3  equal 6
variable H1  equal 7

##############################################################################################
#### Atoms' masses
##############################################################################################

mass  ${Ba}   137.327
mass  1   137.327
mass  ${Zr}    91.224
mass  2    91.224
mass  ${Y}     88.910
mass  3     88.910
mass  ${O1}    15.996
mass  4    15.996
mass  ${O2}    15.996
mass  5    15.996
mass  ${O3}    15.996
mass  6    15.996
mass  ${H1}     1.010
mass  7     1.010

##############################################################################################
#### Atoms' charges
##############################################################################################

set type ${Ba}  charge     2.000000
set type 1  charge     2.000000
Setting atom values ...
  216 settings made for charge
set type ${Zr}  charge     4.000000
set type 2  charge     4.000000
Setting atom values ...
  216 settings made for charge
set type ${Y}   charge     3.000000
set type 3   charge     3.000000
Setting atom values ...
  0 settings made for charge
set type ${O1}  charge    -1.308698
set type 4  charge    -1.308698
Setting atom values ...
  1 settings made for charge
set type ${O2}  charge    -2.000000
set type 5  charge    -2.000000
Setting atom values ...
  647 settings made for charge
set type ${O3}  charge    -2.000000
set type 6  charge    -2.000000
Setting atom values ...
  0 settings made for charge
set type ${H1}  charge     0.308698
set type 7  charge     0.308698
Setting atom values ...
  1 settings made for charge

##############################################################################################
#### Covalent bonds parameters
##############################################################################################
#@  1   bond types

bond_style harmonic
#@ O1 - H1
bond_coeff   1      23.008000      0.985357

##############################################################################################
# Pair potentials
##############################################################################################

variable rmin  equal  8.
variable rmax  equal 10.

pair_style hybrid/overlay buck/mdf ${rmin} ${rmax} lennard/mdf ${rmin} ${rmax} coul/long ${rmax}
pair_style hybrid/overlay buck/mdf 8 ${rmax} lennard/mdf ${rmin} ${rmax} coul/long ${rmax}
pair_style hybrid/overlay buck/mdf 8 10 lennard/mdf ${rmin} ${rmax} coul/long ${rmax}
pair_style hybrid/overlay buck/mdf 8 10 lennard/mdf 8 ${rmax} coul/long ${rmax}
pair_style hybrid/overlay buck/mdf 8 10 lennard/mdf 8 10 coul/long ${rmax}
pair_style hybrid/overlay buck/mdf 8 10 lennard/mdf 8 10 coul/long 10

##############################################################################################
# Buckingham interaction potentials
pair_coeff  ${Ba}  ${O1}  buck/mdf   688.21662   0.392014   0.000
pair_coeff  1  ${O1}  buck/mdf   688.21662   0.392014   0.000
pair_coeff  1  4  buck/mdf   688.21662   0.392014   0.000
pair_coeff  ${Ba}  ${O2}  buck/mdf   972.19945   0.392014   0.000
pair_coeff  1  ${O2}  buck/mdf   972.19945   0.392014   0.000
pair_coeff  1  5  buck/mdf   972.19945   0.392014   0.000
pair_coeff  ${Ba}  ${O3}  buck/mdf   972.19945   0.392014   0.000
pair_coeff  1  ${O3}  buck/mdf   972.19945   0.392014   0.000
pair_coeff  1  6  buck/mdf   972.19945   0.392014   0.000

pair_coeff  ${Y}   ${O1}  buck/mdf   2972.3808   0.267317   0.000
pair_coeff  3   ${O1}  buck/mdf   2972.3808   0.267317   0.000
pair_coeff  3   4  buck/mdf   2972.3808   0.267317   0.000
pair_coeff  ${Y}   ${O2}  buck/mdf   4121.8373   0.280386   0.000
pair_coeff  3   ${O2}  buck/mdf   4121.8373   0.280386   0.000
pair_coeff  3   5  buck/mdf   4121.8373   0.280386   0.000
pair_coeff  ${Y}   ${O3}  buck/mdf   4121.8373   0.280386   0.000
pair_coeff  3   ${O3}  buck/mdf   4121.8373   0.280386   0.000
pair_coeff  3   6  buck/mdf   4121.8373   0.280386   0.000

pair_coeff  ${Zr}  ${O1}  buck/mdf   2195.8712   0.298760   0.000
pair_coeff  2  ${O1}  buck/mdf   2195.8712   0.298760   0.000
pair_coeff  2  4  buck/mdf   2195.8712   0.298760   0.000
pair_coeff  ${Zr}  ${O2}  buck/mdf   3250.8545   0.298760   0.000
pair_coeff  2  ${O2}  buck/mdf   3250.8545   0.298760   0.000
pair_coeff  2  5  buck/mdf   3250.8545   0.298760   0.000
pair_coeff  ${Zr}  ${O3}  buck/mdf   3250.8545   0.298760   0.000
pair_coeff  2  ${O3}  buck/mdf   3250.8545   0.298760   0.000
pair_coeff  2  6  buck/mdf   3250.8545   0.298760   0.000

pair_coeff  ${O1}  ${O1}  buck/mdf   22764.000   0.149000   0.000
pair_coeff  4  ${O1}  buck/mdf   22764.000   0.149000   0.000
pair_coeff  4  4  buck/mdf   22764.000   0.149000   0.000
pair_coeff  ${O1}  ${O2}  buck/mdf   22764.000   0.149000   0.000
pair_coeff  4  ${O2}  buck/mdf   22764.000   0.149000   0.000
pair_coeff  4  5  buck/mdf   22764.000   0.149000   0.000
pair_coeff  ${O1}  ${O3}  buck/mdf   22764.000   0.149000   0.000
pair_coeff  4  ${O3}  buck/mdf   22764.000   0.149000   0.000
pair_coeff  4  6  buck/mdf   22764.000   0.149000   0.000

pair_coeff  ${O2}  ${O2}  buck/mdf   22764.000   0.149000   0.000
pair_coeff  5  ${O2}  buck/mdf   22764.000   0.149000   0.000
pair_coeff  5  5  buck/mdf   22764.000   0.149000   0.000
pair_coeff  ${O2}  ${O3}  buck/mdf   22764.000   0.149000   0.000
pair_coeff  5  ${O3}  buck/mdf   22764.000   0.149000   0.000
pair_coeff  5  6  buck/mdf   22764.000   0.149000   0.000

pair_coeff  ${O3}  ${O3}  buck/mdf   22764.000   0.149000   0.000
pair_coeff  6  ${O3}  buck/mdf   22764.000   0.149000   0.000
pair_coeff  6  6  buck/mdf   22764.000   0.149000   0.000

##############################################################################################
# 12-6 Lennard-Jones potentials
pair_coeff  ${O1}  ${H1}  lennard/mdf    6.391   0.000
pair_coeff  4  ${H1}  lennard/mdf    6.391   0.000
pair_coeff  4  7  lennard/mdf    6.391   0.000
pair_coeff  ${O2}  ${H1}  lennard/mdf    6.391   0.000
pair_coeff  5  ${H1}  lennard/mdf    6.391   0.000
pair_coeff  5  7  lennard/mdf    6.391   0.000
pair_coeff  ${O3}  ${H1}  lennard/mdf    7.800   0.000
pair_coeff  6  ${H1}  lennard/mdf    7.800   0.000
pair_coeff  6  7  lennard/mdf    7.800   0.000

##############################################################################################
# Coulombic interaction
pair_coeff      *      *  coul/long

#########################################################################################################
# Parameters for reciprocal space electrostatics
#########################################################################################################

kspace_style pppm 1.0e-5
kspace_modify fftbench no
fix md all nve
fix tst all temp/csvr 1500 1500 0.1 95726
timestep 0.001
velocity all create 1500 31825 mom yes dist gaussian
fix com all momentum 100 linear 1 1 1
run 0 pre yes post no
PPPM initialization ...
WARNING: System is not charge neutral, net charge = 1 (src/kspace.cpp:327)
  using 12-bit tables for long-range coulomb (src/kspace.cpp:342)
  G vector (1/distance) = 0.34497565
  grid = 40 40 40
  stencil order = 5
  estimated absolute RMS force accuracy = 0.00013990511
  estimated relative force accuracy = 9.7158722e-06
  using double precision FFTW3
  3d grid and FFT values/proc = 24389 8000
Generated 0 of 21 mixed pair_coeff terms from geometric mixing rule
Neighbor list info ...
  update: every = 1 steps, delay = 0 steps, check = yes
  max neighbors/atom: 2000, page size: 100000
  master list distance cutoff = 12
  ghost atom cutoff = 12
  binsize = 6, bins = 5 5 5
  3 neighbor lists, perpetual/occasional/extra = 3 0 0
  (1) pair buck/mdf, perpetual, skip from (3)
      attributes: half, newton on
      pair build: skip
      stencil: none
      bin: none
  (2) pair lennard/mdf, perpetual, skip from (3)
      attributes: half, newton on
      pair build: skip
      stencil: none
      bin: none
  (3) pair coul/long, perpetual
      attributes: half, newton on
      pair build: half/bin/newton/tri
      stencil: half/bin/3d/tri
      bin: standard
Per MPI rank memory allocation (min/avg/max) = 9.829 | 9.846 | 9.945 Mbytes
   Step          Temp          E_pair         E_mol          TotEng         Press     
         0   1460.2908     -31403.378      0.022229774   -31199.498     -1514.0765    
Loop time of 4.30438e-06 on 8 procs for 0 steps with 1081 atoms

clear
OMP_NUM_THREADS environment is not set. Defaulting to 1 thread. (src/comm.cpp:98)
  using 1 OpenMP thread(s) per MPI task
units metal
atom_style full
boundary p p p
read_data /tmp/mustard.7c1d4bb0cc944205b8df9dddf0e63748
Reading data file ...
  triclinic box = (0 0 0) to (25.319 25.319 25.319) with tilt (0 0 0)
  2 by 2 by 2 MPI processor grid
  reading atoms ...
  1081 atoms
  reading velocities ...
  1081 velocities
  scanning bonds ...
  1 = max bonds/atom
  reading bonds ...
  1 bonds
Finding 1-2 1-3 1-4 neighbors ...
  special bond factors lj:    0        0        0       
  special bond factors coul:  0        0        0       
     1 = max # of 1-2 neighbors
     0 = max # of 1-3 neighbors
     0 = max # of 1-4 neighbors
     1 = max # of special neighbors
  special bonds CPU = 0.000 seconds
  read_data CPU = 0.008 seconds
include ff.lmp
##############################################################################################
#### Atoms' types - mass - charge
##############################################################################################
#@ 7   atom types

variable Ba  equal 1
variable Zr  equal 2
variable  Y  equal 3
variable O1  equal 4
variable O2  equal 5
variable O3  equal 6
variable H1  equal 7

##############################################################################################
#### Atoms' masses
##############################################################################################

mass  ${Ba}   137.327
mass  1   137.327
mass  ${Zr}    91.224
mass  2    91.224
mass  ${Y}     88.910
mass  3     88.910
mass  ${O1}    15.996
mass  4    15.996
mass  ${O2}    15.996
mass  5    15.996
mass  ${O3}    15.996
mass  6    15.996
mass  ${H1}     1.010
mass  7     1.010

##############################################################################################
#### Atoms' charges
##############################################################################################

set type ${Ba}  charge     2.000000
set type 1  charge     2.000000
Setting atom values ...
  216 settings made for charge
set type ${Zr}  charge     4.000000
set type 2  charge     4.000000
Setting atom values ...
  216 settings made for charge
set type ${Y}   charge     3.000000
set type 3   charge     3.000000
Setting atom values ...
  0 settings made for charge
set type ${O1}  charge    -1.308698
set type 4  charge    -1.308698
Setting atom values ...
  1 settings made for charge
set type ${O2}  charge    -2.000000
set type 5  charge    -2.000000
Setting atom values ...
  647 settings made for charge
set type ${O3}  charge    -2.000000
set type 6  charge    -2.000000
Setting atom values ...
  0 settings made for charge
set type ${H1}  charge     0.308698
set type 7  charge     0.308698
Setting atom values ...
  1 settings made for charge

##############################################################################################
#### Covalent bonds parameters
##############################################################################################
#@  1   bond types

bond_style harmonic
#@ O1 - H1
bond_coeff   1      23.008000      0.985357

##############################################################################################
# Pair potentials
##############################################################################################

variable rmin  equal  8.
variable rmax  equal 10.

pair_style hybrid/overlay buck/mdf ${rmin} ${rmax} lennard/mdf ${rmin} ${rmax} coul/long ${rmax}
pair_style hybrid/overlay buck/mdf 8 ${rmax} lennard/mdf ${rmin} ${rmax} coul/long ${rmax}
pair_style hybrid/overlay buck/mdf 8 10 lennard/mdf ${rmin} ${rmax} coul/long ${rmax}
pair_style hybrid/overlay buck/mdf 8 10 lennard/mdf 8 ${rmax} coul/long ${rmax}
pair_style hybrid/overlay buck/mdf 8 10 lennard/mdf 8 10 coul/long ${rmax}
pair_style hybrid/overlay buck/mdf 8 10 lennard/mdf 8 10 coul/long 10

##############################################################################################
# Buckingham interaction potentials
pair_coeff  ${Ba}  ${O1}  buck/mdf   688.21662   0.392014   0.000
pair_coeff  1  ${O1}  buck/mdf   688.21662   0.392014   0.000
pair_coeff  1  4  buck/mdf   688.21662   0.392014   0.000
pair_coeff  ${Ba}  ${O2}  buck/mdf   972.19945   0.392014   0.000
pair_coeff  1  ${O2}  buck/mdf   972.19945   0.392014   0.000
pair_coeff  1  5  buck/mdf   972.19945   0.392014   0.000
pair_coeff  ${Ba}  ${O3}  buck/mdf   972.19945   0.392014   0.000
pair_coeff  1  ${O3}  buck/mdf   972.19945   0.392014   0.000
pair_coeff  1  6  buck/mdf   972.19945   0.392014   0.000

pair_coeff  ${Y}   ${O1}  buck/mdf   2972.3808   0.267317   0.000
pair_coeff  3   ${O1}  buck/mdf   2972.3808   0.267317   0.000
pair_coeff  3   4  buck/mdf   2972.3808   0.267317   0.000
pair_coeff  ${Y}   ${O2}  buck/mdf   4121.8373   0.280386   0.000
pair_coeff  3   ${O2}  buck/mdf   4121.8373   0.280386   0.000
pair_coeff  3   5  buck/mdf   4121.8373   0.280386   0.000
pair_coeff  ${Y}   ${O3}  buck/mdf   4121.8373   0.280386   0.000
pair_coeff  3   ${O3}  buck/mdf   4121.8373   0.280386   0.000
pair_coeff  3   6  buck/mdf   4121.8373   0.280386   0.000

pair_coeff  ${Zr}  ${O1}  buck/mdf   2195.8712   0.298760   0.000
pair_coeff  2  ${O1}  buck/mdf   2195.8712   0.298760   0.000
pair_coeff  2  4  buck/mdf   2195.8712   0.298760   0.000
pair_coeff  ${Zr}  ${O2}  buck/mdf   3250.8545   0.298760   0.000
pair_coeff  2  ${O2}  buck/mdf   3250.8545   0.298760   0.000
pair_coeff  2  5  buck/mdf   3250.8545   0.298760   0.000
pair_coeff  ${Zr}  ${O3}  buck/mdf   3250.8545   0.298760   0.000
pair_coeff  2  ${O3}  buck/mdf   3250.8545   0.298760   0.000
pair_coeff  2  6  buck/mdf   3250.8545   0.298760   0.000

pair_coeff  ${O1}  ${O1}  buck/mdf   22764.000   0.149000   0.000
pair_coeff  4  ${O1}  buck/mdf   22764.000   0.149000   0.000
pair_coeff  4  4  buck/mdf   22764.000   0.149000   0.000
pair_coeff  ${O1}  ${O2}  buck/mdf   22764.000   0.149000   0.000
pair_coeff  4  ${O2}  buck/mdf   22764.000   0.149000   0.000
pair_coeff  4  5  buck/mdf   22764.000   0.149000   0.000
pair_coeff  ${O1}  ${O3}  buck/mdf   22764.000   0.149000   0.000
pair_coeff  4  ${O3}  buck/mdf   22764.000   0.149000   0.000
pair_coeff  4  6  buck/mdf   22764.000   0.149000   0.000

pair_coeff  ${O2}  ${O2}  buck/mdf   22764.000   0.149000   0.000
pair_coeff  5  ${O2}  buck/mdf   22764.000   0.149000   0.000
pair_coeff  5  5  buck/mdf   22764.000   0.149000   0.000
pair_coeff  ${O2}  ${O3}  buck/mdf   22764.000   0.149000   0.000
pair_coeff  5  ${O3}  buck/mdf   22764.000   0.149000   0.000
pair_coeff  5  6  buck/mdf   22764.000   0.149000   0.000

pair_coeff  ${O3}  ${O3}  buck/mdf   22764.000   0.149000   0.000
pair_coeff  6  ${O3}  buck/mdf   22764.000   0.149000   0.000
pair_coeff  6  6  buck/mdf   22764.000   0.149000   0.000

##############################################################################################
# 12-6 Lennard-Jones potentials
pair_coeff  ${O1}  ${H1}  lennard/mdf    6.391   0.000
pair_coeff  4  ${H1}  lennard/mdf    6.391   0.000
pair_coeff  4  7  lennard/mdf    6.391   0.000
pair_coeff  ${O2}  ${H1}  lennard/mdf    6.391   0.000
pair_coeff  5  ${H1}  lennard/mdf    6.391   0.000
pair_coeff  5  7  lennard/mdf    6.391   0.000
pair_coeff  ${O3}  ${H1}  lennard/mdf    7.800   0.000
pair_coeff  6  ${H1}  lennard/mdf    7.800   0.000
pair_coeff  6  7  lennard/mdf    7.800   0.000

##############################################################################################
# Coulombic interaction
pair_coeff      *      *  coul/long

#########################################################################################################
# Parameters for reciprocal space electrostatics
#########################################################################################################

kspace_style pppm 1.0e-5
kspace_modify fftbench no
fix md all nve
fix tst all temp/csvr 1500 1500 0.1 95726
timestep 0.001
velocity all create 1500 31825 mom yes dist gaussian
fix com all momentum 100 linear 1 1 1
change_box all x final 0.0 25.319 y final 0.0 25.319 z final 0.0 25.319 xy final 0.0 xz final 0.0 yz final 0.0
Changing box ...
  triclinic box = (0 0 0) to (25.319 25.319 25.319) with tilt (0 0 0)
  triclinic box = (0 0 0) to (25.319 25.319 25.319) with tilt (0 0 0)
  triclinic box = (0 0 0) to (25.319 25.319 25.319) with tilt (0 0 0)
  triclinic box = (0 0 0) to (25.319 25.319 25.319) with tilt (0 0 0)
  triclinic box = (0 0 0) to (25.319 25.319 25.319) with tilt (0 0 0)
  triclinic box = (0 0 0) to (25.319 25.319 25.319) with tilt (0 0 0)
run 0 pre yes post no
PPPM initialization ...
WARNING: System is not charge neutral, net charge = 1 (src/kspace.cpp:327)
  using 12-bit tables for long-range coulomb (src/kspace.cpp:342)
  G vector (1/distance) = 0.34497565
  grid = 40 40 40
  stencil order = 5
  estimated absolute RMS force accuracy = 0.00013990511
  estimated relative force accuracy = 9.7158722e-06
  using double precision FFTW3
  3d grid and FFT values/proc = 24389 8000
Generated 0 of 21 mixed pair_coeff terms from geometric mixing rule
Neighbor list info ...
  update: every = 1 steps, delay = 0 steps, check = yes
  max neighbors/atom: 2000, page size: 100000
  master list distance cutoff = 12
  ghost atom cutoff = 12
  binsize = 6, bins = 5 5 5
  3 neighbor lists, perpetual/occasional/extra = 3 0 0
  (1) pair buck/mdf, perpetual, skip from (3)
      attributes: half, newton on
      pair build: skip
      stencil: none
      bin: none
  (2) pair lennard/mdf, perpetual, skip from (3)
      attributes: half, newton on
      pair build: skip
      stencil: none
      bin: none
  (3) pair coul/long, perpetual
      attributes: half, newton on
      pair build: half/bin/newton/tri
      stencil: half/bin/3d/tri
      bin: standard
Per MPI rank memory allocation (min/avg/max) = 9.829 | 9.846 | 9.945 Mbytes
   Step          Temp          E_pair         E_mol          TotEng         Press     
         0   1460.2908     -31403.378      0.022229774   -31199.498     -1514.0765    
Loop time of 5.12212e-06 on 8 procs for 0 steps with 1081 atoms

group HXY id 1 2 3 
3 atoms in group HXY
delete_bonds HXY multi remove
System init for delete_bonds ...
PPPM initialization ...
  using 12-bit tables for long-range coulomb (src/kspace.cpp:342)
  G vector (1/distance) = 0.34497565
  grid = 40 40 40
  stencil order = 5
  estimated absolute RMS force accuracy = 0.00013990511
  estimated relative force accuracy = 9.7158722e-06
  using double precision FFTW3
  3d grid and FFT values/proc = 24389 8000
Generated 0 of 21 mixed pair_coeff terms from geometric mixing rule
Deleting bonds ...
  0 total bonds, 0 turned on, 0 turned off
  0 total angles, 0 turned on, 0 turned off
  0 total dihedrals, 0 turned on, 0 turned off
  0 total impropers, 0 turned on, 0 turned off
set atom 1 type 7
Setting atom values ...
  1 settings made for type
set atom 1 charge 0.308698
Setting atom values ...
  1 settings made for charge
set atom 3 type 4
Setting atom values ...
  1 settings made for type
set atom 3 charge -1.308698
Setting atom values ...
  1 settings made for charge
set atom 2 type 5
Setting atom values ...
  1 settings made for type
set atom 2 charge -2.0
Setting atom values ...
  1 settings made for charge
set atom 3 image 0 0 0
Setting atom values ...
  1 settings made for image
create_bonds single/bond 1 3 1 special yes
Finding 1-2 1-3 1-4 neighbors ...
  special bond factors lj:    0        0        0       
  special bond factors coul:  0        0        0       
     1 = max # of 1-2 neighbors
     0 = max # of 1-3 neighbors
     0 = max # of 1-4 neighbors
     1 = max # of special neighbors
  special bonds CPU = 0.000 seconds
group HXY delete
run 0 pre yes post no
PPPM initialization ...
  using 12-bit tables for long-range coulomb (src/kspace.cpp:342)
  G vector (1/distance) = 0.34497565
  grid = 40 40 40
  stencil order = 5
  estimated absolute RMS force accuracy = 0.00013990511
  estimated relative force accuracy = 9.7158722e-06
  using double precision FFTW3
  3d grid and FFT values/proc = 24389 8000
Generated 0 of 21 mixed pair_coeff terms from geometric mixing rule
Per MPI rank memory allocation (min/avg/max) = 9.829 | 9.846 | 9.945 Mbytes
   Step          Temp          E_pair         E_mol          TotEng         Press     
         0   1460.2908     -31400.746      13.943849     -31182.944     -1605.3042    
Loop time of 3.93087e-06 on 8 procs for 0 steps with 1081 atoms

run 0 pre yes post no
PPPM initialization ...
  using 12-bit tables for long-range coulomb (src/kspace.cpp:342)
  G vector (1/distance) = 0.34497565
  grid = 40 40 40
  stencil order = 5
  estimated absolute RMS force accuracy = 0.00013990511
  estimated relative force accuracy = 9.7158722e-06
  using double precision FFTW3
  3d grid and FFT values/proc = 24389 8000
Generated 0 of 21 mixed pair_coeff terms from geometric mixing rule
Per MPI rank memory allocation (min/avg/max) = 9.829 | 9.846 | 9.945 Mbytes
   Step          Temp          E_pair         E_mol          TotEng         Press     
         0   1456.5142     -31399.426      12.067572     -31184.028     -1146.6923    
Loop time of 4.1325e-06 on 8 procs for 0 steps with 1081 atoms

run 0 pre yes post no
PPPM initialization ...
  using 12-bit tables for long-range coulomb (src/kspace.cpp:342)
  G vector (1/distance) = 0.34497565
  grid = 40 40 40
  stencil order = 5
  estimated absolute RMS force accuracy = 0.00013990511
  estimated relative force accuracy = 9.7158722e-06
  using double precision FFTW3
  3d grid and FFT values/proc = 24389 8000
Generated 0 of 21 mixed pair_coeff terms from geometric mixing rule
Per MPI rank memory allocation (min/avg/max) = 9.829 | 9.846 | 9.945 Mbytes
   Step          Temp          E_pair         E_mol          TotEng         Press     
         0   1450.9        -31398.947      10.103988     -31186.296     -1137.4136    
Loop time of 4.70525e-06 on 8 procs for 0 steps with 1081 atoms

run 0 pre yes post no
PPPM initialization ...
  using 12-bit tables for long-range coulomb (src/kspace.cpp:342)
  G vector (1/distance) = 0.34497565
  grid = 40 40 40
  stencil order = 5
  estimated absolute RMS force accuracy = 0.00013990511
  estimated relative force accuracy = 9.7158722e-06
  using double precision FFTW3
  3d grid and FFT values/proc = 24389 8000
Generated 0 of 21 mixed pair_coeff terms from geometric mixing rule
Per MPI rank memory allocation (min/avg/max) = 9.829 | 9.846 | 9.945 Mbytes
   Step          Temp          E_pair         E_mol          TotEng         Press     
         0   1449.3048     -31398.84       8.1625679     -31188.353     -1311.6726    
Loop time of 4.09488e-06 on 8 procs for 0 steps with 1081 atoms

run 0 pre yes post no
PPPM initialization ...
  using 12-bit tables for long-range coulomb (src/kspace.cpp:342)
  G vector (1/distance) = 0.34497565
  grid = 40 40 40
  stencil order = 5
  estimated absolute RMS force accuracy = 0.00013990511
  estimated relative force accuracy = 9.7158722e-06
  using double precision FFTW3
  3d grid and FFT values/proc = 24389 8000
Generated 0 of 21 mixed pair_coeff terms from geometric mixing rule
Per MPI rank memory allocation (min/avg/max) = 9.829 | 9.846 | 9.945 Mbytes
   Step          Temp          E_pair         E_mol          TotEng         Press     
         0   1442.5906     -31398.533      6.4390168     -31190.707     -1487.4686    
Loop time of 5.117e-06 on 8 procs for 0 steps with 1081 atoms

run 0 pre yes post no
PPPM initialization ...
  using 12-bit tables for long-range coulomb (src/kspace.cpp:342)
  G vector (1/distance) = 0.34497565
  grid = 40 40 40
  stencil order = 5
  estimated absolute RMS force accuracy = 0.00013990511
  estimated relative force accuracy = 9.7158722e-06
  using double precision FFTW3
  3d grid and FFT values/proc = 24389 8000
Generated 0 of 21 mixed pair_coeff terms from geometric mixing rule
Per MPI rank memory allocation (min/avg/max) = 9.829 | 9.846 | 9.945 Mbytes
   Step          Temp          E_pair         E_mol          TotEng         Press     
         0   1432.9684     -31397.98       5.1081477     -31192.828     -1583.5291    
Loop time of 3.76575e-06 on 8 procs for 0 steps with 1081 atoms

run 0 pre yes post no
PPPM initialization ...
  using 12-bit tables for long-range coulomb (src/kspace.cpp:342)
  G vector (1/distance) = 0.34497565
  grid = 40 40 40
  stencil order = 5
  estimated absolute RMS force accuracy = 0.00013990511
  estimated relative force accuracy = 9.7158722e-06
  using double precision FFTW3
  3d grid and FFT values/proc = 24389 8000
Generated 0 of 21 mixed pair_coeff terms from geometric mixing rule
Per MPI rank memory allocation (min/avg/max) = 9.829 | 9.846 | 9.945 Mbytes
   Step          Temp          E_pair         E_mol          TotEng         Press     
         0   1414.297      -31397.392      4.2387824     -31195.716     -1696.7861    
Loop time of 4.70013e-06 on 8 procs for 0 steps with 1081 atoms

run 0 pre yes post no
PPPM initialization ...
  using 12-bit tables for long-range coulomb (src/kspace.cpp:342)
  G vector (1/distance) = 0.34497565
  grid = 40 40 40
  stencil order = 5
  estimated absolute RMS force accuracy = 0.00013990511
  estimated relative force accuracy = 9.7158722e-06
  using double precision FFTW3
  3d grid and FFT values/proc = 24389 8000
Generated 0 of 21 mixed pair_coeff terms from geometric mixing rule
Per MPI rank memory allocation (min/avg/max) = 9.829 | 9.846 | 9.945 Mbytes
   Step          Temp          E_pair         E_mol          TotEng         Press     
         0   1422.2549     -31396.938      3.7908874     -31194.599     -1526.8869    
Loop time of 3.896e-06 on 8 procs for 0 steps with 1081 atoms

run 0 pre yes post no
PPPM initialization ...
  using 12-bit tables for long-range coulomb (src/kspace.cpp:342)
  G vector (1/distance) = 0.34497565
  grid = 40 40 40
  stencil order = 5
  estimated absolute RMS force accuracy = 0.00013990511
  estimated relative force accuracy = 9.7158722e-06
  using double precision FFTW3
  3d grid and FFT values/proc = 24389 8000
Generated 0 of 21 mixed pair_coeff terms from geometric mixing rule
Per MPI rank memory allocation (min/avg/max) = 9.829 | 9.846 | 9.945 Mbytes
   Step          Temp          E_pair         E_mol          TotEng         Press     
         0   1435.5488     -31396.718      3.6515721     -31192.662     -1286.1291    
Loop time of 4.07625e-06 on 8 procs for 0 steps with 1081 atoms

run 0 pre yes post no
PPPM initialization ...
  using 12-bit tables for long-range coulomb (src/kspace.cpp:342)
  G vector (1/distance) = 0.34497565
  grid = 40 40 40
  stencil order = 5
  estimated absolute RMS force accuracy = 0.00013990511
  estimated relative force accuracy = 9.7158722e-06
  using double precision FFTW3
  3d grid and FFT values/proc = 24389 8000
Generated 0 of 21 mixed pair_coeff terms from geometric mixing rule
Per MPI rank memory allocation (min/avg/max) = 9.829 | 9.846 | 9.945 Mbytes
   Step          Temp          E_pair         E_mol          TotEng         Press     
         0   1438.6938     -31396.985      3.6978655     -31192.444     -1223.3066    
Loop time of 3.98362e-06 on 8 procs for 0 steps with 1081 atoms

run 0 pre yes post no
PPPM initialization ...
  using 12-bit tables for long-range coulomb (src/kspace.cpp:342)
  G vector (1/distance) = 0.34497565
  grid = 40 40 40
  stencil order = 5
  estimated absolute RMS force accuracy = 0.00013990511
  estimated relative force accuracy = 9.7158722e-06
  using double precision FFTW3
  3d grid and FFT values/proc = 24389 8000
Generated 0 of 21 mixed pair_coeff terms from geometric mixing rule
Per MPI rank memory allocation (min/avg/max) = 9.829 | 9.846 | 9.945 Mbytes
   Step          Temp          E_pair         E_mol          TotEng         Press     
         0   1444.2619     -31398.237      3.8472348     -31192.769     -1442.3634    
Loop time of 4.06275e-06 on 8 procs for 0 steps with 1081 atoms

run 0 pre yes post no
PPPM initialization ...
  using 12-bit tables for long-range coulomb (src/kspace.cpp:342)
  G vector (1/distance) = 0.34497565
  grid = 40 40 40
  stencil order = 5
  estimated absolute RMS force accuracy = 0.00013990511
  estimated relative force accuracy = 9.7158722e-06
  using double precision FFTW3
  3d grid and FFT values/proc = 24389 8000
Generated 0 of 21 mixed pair_coeff terms from geometric mixing rule
Per MPI rank memory allocation (min/avg/max) = 9.829 | 9.846 | 9.945 Mbytes
   Step          Temp          E_pair         E_mol          TotEng         Press     
         0   1452.4234     -31400.522      4.1199545     -31193.642     -1988.4873    
Loop time of 4.13538e-06 on 8 procs for 0 steps with 1081 atoms

run 0 pre yes post no
PPPM initialization ...
  using 12-bit tables for long-range coulomb (src/kspace.cpp:342)
  G vector (1/distance) = 0.34497565
  grid = 40 40 40
  stencil order = 5
  estimated absolute RMS force accuracy = 0.00013990511
  estimated relative force accuracy = 9.7158722e-06
  using double precision FFTW3
  3d grid and FFT values/proc = 24389 8000
Generated 0 of 21 mixed pair_coeff terms from geometric mixing rule
Per MPI rank memory allocation (min/avg/max) = 9.829 | 9.846 | 9.945 Mbytes
   Step          Temp          E_pair         E_mol          TotEng         Press     
         0   1468.4132     -31403.157      4.6508266     -31193.514     -2563.1649    
Loop time of 4.39263e-06 on 8 procs for 0 steps with 1081 atoms

run 0 pre yes post no
PPPM initialization ...
  using 12-bit tables for long-range coulomb (src/kspace.cpp:342)
  G vector (1/distance) = 0.34497565
  grid = 40 40 40
  stencil order = 5
  estimated absolute RMS force accuracy = 0.00013990511
  estimated relative force accuracy = 9.7158722e-06
  using double precision FFTW3
  3d grid and FFT values/proc = 24389 8000
Generated 0 of 21 mixed pair_coeff terms from geometric mixing rule
Per MPI rank memory allocation (min/avg/max) = 9.829 | 9.846 | 9.945 Mbytes
   Step          Temp          E_pair         E_mol          TotEng         Press     
         0   1474.9552     -31405.552      5.6210214     -31194.026     -3104.6865    
Loop time of 4.5385e-06 on 8 procs for 0 steps with 1081 atoms

run 0 pre yes post no
PPPM initialization ...
  using 12-bit tables for long-range coulomb (src/kspace.cpp:342)
  G vector (1/distance) = 0.34497565
  grid = 40 40 40
  stencil order = 5
  estimated absolute RMS force accuracy = 0.00013990511
  estimated relative force accuracy = 9.7158722e-06
  using double precision FFTW3
  3d grid and FFT values/proc = 24389 8000
Generated 0 of 21 mixed pair_coeff terms from geometric mixing rule
Per MPI rank memory allocation (min/avg/max) = 9.829 | 9.846 | 9.945 Mbytes
   Step          Temp          E_pair         E_mol          TotEng         Press     
         0   1486.8664     -31407.509      7.1559705     -31192.785     -3405.702     
Loop time of 4.91287e-06 on 8 procs for 0 steps with 1081 atoms

run 0 pre yes post no
PPPM initialization ...
  using 12-bit tables for long-range coulomb (src/kspace.cpp:342)
  G vector (1/distance) = 0.34497565
  grid = 40 40 40
  stencil order = 5
  estimated absolute RMS force accuracy = 0.00013990511
  estimated relative force accuracy = 9.7158722e-06
  using double precision FFTW3
  3d grid and FFT values/proc = 24389 8000
Generated 0 of 21 mixed pair_coeff terms from geometric mixing rule
Per MPI rank memory allocation (min/avg/max) = 9.829 | 9.846 | 9.945 Mbytes
   Step          Temp          E_pair         E_mol          TotEng         Press     
         0   1494.5975     -31408.858      9.2695243     -31190.941     -3488.1639    
Loop time of 4.75625e-06 on 8 procs for 0 steps with 1081 atoms

run 0 pre yes post no
PPPM initialization ...
  using 12-bit tables for long-range coulomb (src/kspace.cpp:342)
  G vector (1/distance) = 0.34497565
  grid = 40 40 40
  stencil order = 5
  estimated absolute RMS force accuracy = 0.00013990511
  estimated relative force accuracy = 9.7158722e-06
  using double precision FFTW3
  3d grid and FFT values/proc = 24389 8000
Generated 0 of 21 mixed pair_coeff terms from geometric mixing rule
Per MPI rank memory allocation (min/avg/max) = 9.829 | 9.846 | 9.945 Mbytes
   Step          Temp          E_pair         E_mol          TotEng         Press     
         0   1498.8386     -31409.106      11.824526     -31188.042     -3160.2073    
Loop time of 4.39838e-06 on 8 procs for 0 steps with 1081 atoms

run 0 pre yes post no
PPPM initialization ...
  using 12-bit tables for long-range coulomb (src/kspace.cpp:342)
  G vector (1/distance) = 0.34497565
  grid = 40 40 40
  stencil order = 5
  estimated absolute RMS force accuracy = 0.00013990511
  estimated relative force accuracy = 9.7158722e-06
  using double precision FFTW3
  3d grid and FFT values/proc = 24389 8000
Generated 0 of 21 mixed pair_coeff terms from geometric mixing rule
Per MPI rank memory allocation (min/avg/max) = 9.829 | 9.846 | 9.945 Mbytes
   Step          Temp          E_pair         E_mol          TotEng         Press     
         0   1508.9814     -31407.62       14.545936     -31182.418     -2108.8463    
Loop time of 3.7385e-06 on 8 procs for 0 steps with 1081 atoms

run 0 pre yes post no
PPPM initialization ...
  using 12-bit tables for long-range coulomb (src/kspace.cpp:342)
  G vector (1/distance) = 0.34497565
  grid = 40 40 40
  stencil order = 5
  estimated absolute RMS force accuracy = 0.00013990511
  estimated relative force accuracy = 9.7158722e-06
  using double precision FFTW3
  3d grid and FFT values/proc = 24389 8000
Generated 0 of 21 mixed pair_coeff terms from geometric mixing rule
Per MPI rank memory allocation (min/avg/max) = 9.829 | 9.846 | 9.945 Mbytes
   Step          Temp          E_pair         E_mol          TotEng         Press     
         0   1508.9814     -31407.62       14.545936     -31182.418     -2108.8463    
Loop time of 4.51475e-06 on 8 procs for 0 steps with 1081 atoms

Total wall time: 0:00:00
