LAMMPS description

       3          atoms
       1          bonds
       0         angles
       0      dihedrals
       0      impropers

       7     atom types
       1     bond types
       0    angle types
       0 dihedral types
       0 improper types


  0.0000000      25.319000     xlo xhi
  0.0000000      25.319000     ylo yhi
  0.0000000      25.319000     zlo zhi

 Atoms

      1      1      7      0.0000000      7.7270000      9.3380000     10.6260000
      2      2      5      0.0000000      6.4570000      8.6950000     10.4650000
      3      1      4      0.0000000      8.1760000     10.5980000     10.4150000

 Bonds

       1       1       1       3
