ITEM: TIMESTEP
0
ITEM: NUMBER OF ATOMS
3
ITEM: BOX BOUNDS xy xz yz pp pp pp
0.0000000000000000e+00 2.5318999999999999e+01 0.0000000000000000e+00
0.0000000000000000e+00 2.5318999999999999e+01 0.0000000000000000e+00
0.0000000000000000e+00 2.5318999999999999e+01 0.0000000000000000e+00
ITEM: ATOMS f_numforce[1] f_numforce[2] f_numforce[3] v_ferrx v_ferry v_ferrz
2.42471 14.1675 -3.04958 0.000643209 0.000201586 0.000338077
-0.622665 -2.61345 0.516943 0.00149257 0.0010386 -0.000325163
-1.80202 -11.5541 2.53261 -0.00211864 -0.00128554 -3.84085e-05
ITEM: TIMESTEP
1
ITEM: NUMBER OF ATOMS
3
ITEM: BOX BOUNDS xy xz yz pp pp pp
0.0000000000000000e+00 2.5318999999999999e+01 0.0000000000000000e+00
0.0000000000000000e+00 2.5318999999999999e+01 0.0000000000000000e+00
0.0000000000000000e+00 2.5318999999999999e+01 0.0000000000000000e+00
ITEM: ATOMS f_numforce[1] f_numforce[2] f_numforce[3] v_ferrx v_ferry v_ferrz
1.55373 10.3677 -2.41096 0.00165949 0.000710264 0.000176105
-0.721151 -2.40769 0.45969 0.00114876 0.00162022 -0.00117305
-0.832555 -7.96001 1.95124 -0.00278559 -0.00237132 0.000972263
