LAMMPS (3 Aug 2023 - Development - patch_2Aug2023-673-gf0801338f3-modified)
WARNING: Using I/O redirection is unreliable with parallel runs. Better to use the -in switch to read input files. (src/lammps.cpp:539)
OMP_NUM_THREADS environment is not set. Defaulting to 1 thread. (src/comm.cpp:98)
  using 1 OpenMP thread(s) per MPI task
units metal
atom_style full
boundary p p p
read_data bazryo3-1.0.lmp
Reading data file ...
  orthogonal box = (0 0 0) to (25.319 25.319 25.319)
  1 by 1 by 2 MPI processor grid
  reading atoms ...
  3 atoms
  scanning bonds ...
  1 = max bonds/atom
  reading bonds ...
  1 bonds
Finding 1-2 1-3 1-4 neighbors ...
  special bond factors lj:    0        0        0       
  special bond factors coul:  0        0        0       
     1 = max # of 1-2 neighbors
     0 = max # of 1-3 neighbors
     0 = max # of 1-4 neighbors
     1 = max # of special neighbors
  special bonds CPU = 0.000 seconds
  read_data CPU = 0.003 seconds
change_box all triclinic
Changing box ...
  triclinic box = (0 0 0) to (25.319 25.319 25.319) with tilt (0 0 0)
include ff.lmp
##############################################################################################
#### Atoms' types - mass - charge
##############################################################################################
#@ 7   atom types

variable Ba  equal 1
variable Zr  equal 2
variable  Y  equal 3
variable O1  equal 4
variable O2  equal 5
variable O3  equal 6
variable H1  equal 7

##############################################################################################
#### Atoms' masses
##############################################################################################

mass  ${Ba}   137.327
mass  1   137.327
mass  ${Zr}    91.224
mass  2    91.224
mass  ${Y}     88.910
mass  3     88.910
mass  ${O1}    100000
mass  4    100000
# mass  ${O1}    15.996
mass  ${O2}    100000
mass  5    100000
# mass  ${O2}    15.996
mass  ${O3}    15.996
mass  6    15.996
mass  ${H1}     1.008
mass  7     1.008

##############################################################################################
#### Atoms' charges
##############################################################################################

set type ${Ba}  charge     2.000000
set type 1  charge     2.000000
Setting atom values ...
  0 settings made for charge
set type ${Zr}  charge     4.000000
set type 2  charge     4.000000
Setting atom values ...
  0 settings made for charge
set type ${Y}   charge     3.000000
set type 3   charge     3.000000
Setting atom values ...
  0 settings made for charge
set type ${O1}  charge    -1.308698
set type 4  charge    -1.308698
Setting atom values ...
  1 settings made for charge
set type ${O2}  charge    -2.000000
set type 5  charge    -2.000000
Setting atom values ...
  1 settings made for charge
set type ${O3}  charge    -2.000000
set type 6  charge    -2.000000
Setting atom values ...
  0 settings made for charge
set type ${H1}  charge     0.308698
set type 7  charge     0.308698
Setting atom values ...
  1 settings made for charge

##############################################################################################
#### Covalent bonds parameters
##############################################################################################
#@  1   bond types

bond_style harmonic
#@ O1 - H1
# bond_coeff   1      11.504000      0.985357
bond_coeff   1      23.008000      0.985357

##############################################################################################
# Pair potentials
##############################################################################################

variable rmin  equal  8.
variable rmax  equal 10.

pair_style hybrid/overlay buck/mdf ${rmin} ${rmax} lennard/mdf ${rmin} ${rmax} coul/long ${rmax}
pair_style hybrid/overlay buck/mdf 8 ${rmax} lennard/mdf ${rmin} ${rmax} coul/long ${rmax}
pair_style hybrid/overlay buck/mdf 8 10 lennard/mdf ${rmin} ${rmax} coul/long ${rmax}
pair_style hybrid/overlay buck/mdf 8 10 lennard/mdf 8 ${rmax} coul/long ${rmax}
pair_style hybrid/overlay buck/mdf 8 10 lennard/mdf 8 10 coul/long ${rmax}
pair_style hybrid/overlay buck/mdf 8 10 lennard/mdf 8 10 coul/long 10

##############################################################################################
# Buckingham interaction potentials
pair_coeff  ${Ba}  ${O1}  buck/mdf   688.21662   0.392014   0.000
pair_coeff  1  ${O1}  buck/mdf   688.21662   0.392014   0.000
pair_coeff  1  4  buck/mdf   688.21662   0.392014   0.000
pair_coeff  ${Ba}  ${O2}  buck/mdf   972.19945   0.392014   0.000
pair_coeff  1  ${O2}  buck/mdf   972.19945   0.392014   0.000
pair_coeff  1  5  buck/mdf   972.19945   0.392014   0.000
pair_coeff  ${Ba}  ${O3}  buck/mdf   972.19945   0.392014   0.000
pair_coeff  1  ${O3}  buck/mdf   972.19945   0.392014   0.000
pair_coeff  1  6  buck/mdf   972.19945   0.392014   0.000

pair_coeff  ${Y}   ${O1}  buck/mdf   2972.3808   0.267317   0.000
pair_coeff  3   ${O1}  buck/mdf   2972.3808   0.267317   0.000
pair_coeff  3   4  buck/mdf   2972.3808   0.267317   0.000
pair_coeff  ${Y}   ${O2}  buck/mdf   4121.8373   0.280386   0.000
pair_coeff  3   ${O2}  buck/mdf   4121.8373   0.280386   0.000
pair_coeff  3   5  buck/mdf   4121.8373   0.280386   0.000
pair_coeff  ${Y}   ${O3}  buck/mdf   4121.8373   0.280386   0.000
pair_coeff  3   ${O3}  buck/mdf   4121.8373   0.280386   0.000
pair_coeff  3   6  buck/mdf   4121.8373   0.280386   0.000

pair_coeff  ${Zr}  ${O1}  buck/mdf   2195.8712   0.298760   0.000
pair_coeff  2  ${O1}  buck/mdf   2195.8712   0.298760   0.000
pair_coeff  2  4  buck/mdf   2195.8712   0.298760   0.000
pair_coeff  ${Zr}  ${O2}  buck/mdf   3250.8545   0.298760   0.000
pair_coeff  2  ${O2}  buck/mdf   3250.8545   0.298760   0.000
pair_coeff  2  5  buck/mdf   3250.8545   0.298760   0.000
pair_coeff  ${Zr}  ${O3}  buck/mdf   3250.8545   0.298760   0.000
pair_coeff  2  ${O3}  buck/mdf   3250.8545   0.298760   0.000
pair_coeff  2  6  buck/mdf   3250.8545   0.298760   0.000

pair_coeff  ${O1}  ${O1}  buck/mdf   22764.000   0.149000   0.000
pair_coeff  4  ${O1}  buck/mdf   22764.000   0.149000   0.000
pair_coeff  4  4  buck/mdf   22764.000   0.149000   0.000
pair_coeff  ${O1}  ${O2}  buck/mdf   22764.000   0.149000   0.000
pair_coeff  4  ${O2}  buck/mdf   22764.000   0.149000   0.000
pair_coeff  4  5  buck/mdf   22764.000   0.149000   0.000
pair_coeff  ${O1}  ${O3}  buck/mdf   22764.000   0.149000   0.000
pair_coeff  4  ${O3}  buck/mdf   22764.000   0.149000   0.000
pair_coeff  4  6  buck/mdf   22764.000   0.149000   0.000

pair_coeff  ${O2}  ${O2}  buck/mdf   22764.000   0.149000   0.000
pair_coeff  5  ${O2}  buck/mdf   22764.000   0.149000   0.000
pair_coeff  5  5  buck/mdf   22764.000   0.149000   0.000
pair_coeff  ${O2}  ${O3}  buck/mdf   22764.000   0.149000   0.000
pair_coeff  5  ${O3}  buck/mdf   22764.000   0.149000   0.000
pair_coeff  5  6  buck/mdf   22764.000   0.149000   0.000

pair_coeff  ${O3}  ${O3}  buck/mdf   22764.000   0.149000   0.000
pair_coeff  6  ${O3}  buck/mdf   22764.000   0.149000   0.000
pair_coeff  6  6  buck/mdf   22764.000   0.149000   0.000

##############################################################################################
# 12-6 Lennard-Jones potentials
pair_coeff  ${O1}  ${H1}  lennard/mdf    6.391   0.000
pair_coeff  4  ${H1}  lennard/mdf    6.391   0.000
pair_coeff  4  7  lennard/mdf    6.391   0.000
pair_coeff  ${O2}  ${H1}  lennard/mdf    6.391   0.000
pair_coeff  5  ${H1}  lennard/mdf    6.391   0.000
pair_coeff  5  7  lennard/mdf    6.391   0.000
pair_coeff  ${O3}  ${H1}  lennard/mdf    7.800   0.000
pair_coeff  6  ${H1}  lennard/mdf    7.800   0.000
pair_coeff  6  7  lennard/mdf    7.800   0.000

##############################################################################################
# Coulombic interaction
pair_coeff      *      *  coul/long

#########################################################################################################
# Parameters for reciprocal space electrostatics
#########################################################################################################

kspace_style pppm 1.0e-5
kspace_modify fftbench no

fix md all nve
timestep 0.0002

run 0 post no
PPPM initialization ...
WARNING: System is not charge neutral, net charge = -3 (src/kspace.cpp:327)
  using 12-bit tables for long-range coulomb (src/kspace.cpp:342)
  G vector (1/distance) = 0.28934131
  grid = 18 18 18
  stencil order = 5
  estimated absolute RMS force accuracy = 7.7110449e-05
  estimated relative force accuracy = 5.3550243e-06
  using double precision KISS FFT
  3d grid and FFT values/proc = 10000 2916
Generated 0 of 21 mixed pair_coeff terms from geometric mixing rule
Neighbor list info ...
  update: every = 1 steps, delay = 0 steps, check = yes
  max neighbors/atom: 2000, page size: 100000
  master list distance cutoff = 12
  ghost atom cutoff = 12
  binsize = 6, bins = 5 5 5
  3 neighbor lists, perpetual/occasional/extra = 3 0 0
  (1) pair buck/mdf, perpetual, skip from (3)
      attributes: half, newton on
      pair build: skip
      stencil: none
      bin: none
  (2) pair lennard/mdf, perpetual, skip from (3)
      attributes: half, newton on
      pair build: skip
      stencil: none
      bin: none
  (3) pair coul/long, perpetual
      attributes: half, newton on
      pair build: half/bin/newton/tri
      stencil: half/bin/3d/tri
      bin: standard
Per MPI rank memory allocation (min/avg/max) = 8.392 | 8.512 | 8.631 Mbytes
   Step          Temp          E_pair         E_mol          TotEng         Press     
         0   0              1.3404142      3.129277       4.4696913     -665.6687     
Loop time of 1.919e-06 on 2 procs for 0 steps with 3 atoms

fix ux all store/state 1 xu yu zu
fix ext all external pf/callback 1 1
fix_modify ext energy no
fix_modify ext virial no
compute get_pe all pe

run 0 post no
PPPM initialization ...
  using 12-bit tables for long-range coulomb (src/kspace.cpp:342)
  G vector (1/distance) = 0.28934131
  grid = 18 18 18
  stencil order = 5
  estimated absolute RMS force accuracy = 7.7110449e-05
  estimated relative force accuracy = 5.3550243e-06
  using double precision KISS FFT
  3d grid and FFT values/proc = 10000 2916
Generated 0 of 21 mixed pair_coeff terms from geometric mixing rule
Per MPI rank memory allocation (min/avg/max) = 9.142 | 9.262 | 9.381 Mbytes
   Step          Temp          E_pair         E_mol          TotEng         Press     
         0   0              1.3404142      3.129277       4.4696913     -665.6687     
Loop time of 1.583e-06 on 2 procs for 0 steps with 3 atoms

run 0 pre yes post no
PPPM initialization ...
  using 12-bit tables for long-range coulomb (src/kspace.cpp:342)
  G vector (1/distance) = 0.28934131
  grid = 18 18 18
  stencil order = 5
  estimated absolute RMS force accuracy = 7.7110449e-05
  estimated relative force accuracy = 5.3550243e-06
  using double precision KISS FFT
  3d grid and FFT values/proc = 10000 2916
Generated 0 of 21 mixed pair_coeff terms from geometric mixing rule
Per MPI rank memory allocation (min/avg/max) = 9.142 | 9.262 | 9.381 Mbytes
   Step          Temp          E_pair         E_mol          TotEng         Press     
         0   0              1.3404142      3.129277       4.4696913     -665.6687     
Loop time of 3.111e-06 on 2 procs for 0 steps with 3 atoms

run 1 pre yes post no update no
Per MPI rank memory allocation (min/avg/max) = 9.142 | 9.262 | 9.381 Mbytes
   Step          Temp          E_pair         E_mol          TotEng         Press     
         0   0              1.3404142      3.129277       4.4696913     -665.6687     
         1   66.359668      1.3411017      3.1050738      4.4633309     -660.84152    
Loop time of 0.00346046 on 2 procs for 1 steps with 3 atoms

run 1 pre no post no update no
   Step          Temp          E_pair         E_mol          TotEng         Press     
         1   66.359668      1.3411017      3.1050738      4.4633309     -660.84152    
         2   264.55115      1.343305       3.032936       4.4446329     -646.40266    
Loop time of 0.00324728 on 2 procs for 1 steps with 3 atoms

run 1 pre no post no update no
   Step          Temp          E_pair         E_mol          TotEng         Press     
         2   264.55115      1.343305       3.032936       4.4446329     -646.40266    
         3   591.87294      1.3474278      2.9143099      4.4147489     -622.48422    
Loop time of 0.0032867 on 2 procs for 1 steps with 3 atoms

run 1 pre no post no update no
   Step          Temp          E_pair         E_mol          TotEng         Press     
         3   591.87294      1.3474278      2.9143099      4.4147489     -622.48422    
         4   1043.7064      1.354131       2.751702       4.3756524     -589.31713    
Loop time of 0.00323279 on 2 procs for 1 steps with 3 atoms

run 1 pre no post no update no
   Step          Temp          E_pair         E_mol          TotEng         Press     
         4   1043.7064      1.354131       2.751702       4.3756524     -589.31713    
         5   1613.3523      1.3642805      2.5487999      4.3301647     -547.24574    
Loop time of 0.00318565 on 2 procs for 1 steps with 3 atoms

run 1 pre no post no update no
   Step          Temp          E_pair         E_mol          TotEng         Press     
         5   1613.3523      1.3642805      2.5487999      4.3301647     -547.24574    
         6   2291.6619      1.3789004      2.3106104      4.2819519     -496.74684    
Loop time of 0.00326867 on 2 procs for 1 steps with 3 atoms

run 1 pre no post no update no
   Step          Temp          E_pair         E_mol          TotEng         Press     
         6   2291.6619      1.3789004      2.3106104      4.2819519     -496.74684    
         7   3065.9779      1.3990955      2.0436082      4.2353212     -438.46452    
Loop time of 0.00321678 on 2 procs for 1 steps with 3 atoms

run 1 pre no post no update no
   Step          Temp          E_pair         E_mol          TotEng         Press     
         7   3065.9779      1.3990955      2.0436082      4.2353212     -438.46452    
         8   3917.6559      1.4259357      1.7558944      4.1946236     -373.27966    
Loop time of 0.00338427 on 2 procs for 1 steps with 3 atoms

run 1 pre no post no update no
   Step          Temp          E_pair         E_mol          TotEng         Press     
         8   3917.6559      1.4259357      1.7558944      4.1946236     -373.27966    
         9   4818.1314      1.4602872      1.4573161      4.163188      -302.4192     
Loop time of 0.00339206 on 2 procs for 1 steps with 3 atoms

run 1 pre no post no update no
   Step          Temp          E_pair         E_mol          TotEng         Press     
         9   4818.1314      1.4602872      1.4573161      4.163188      -302.4192     
        10   5725.6318      1.5026279      1.1593834      4.1422033     -227.55826    
Loop time of 0.0033734 on 2 procs for 1 steps with 3 atoms

run 1 pre yes post no update no
Per MPI rank memory allocation (min/avg/max) = 9.142 | 9.262 | 9.381 Mbytes
   Step          Temp          E_pair         E_mol          TotEng         Press     
        10   5725.6318      1.5026279      1.1593834      4.1422033     -227.55826    
        11   6586.4956      1.5528826      0.87474376     4.1303691     -150.81653    
Loop time of 0.0029953 on 2 procs for 1 steps with 3 atoms

run 1 pre no post no update no
   Step          Temp          E_pair         E_mol          TotEng         Press     
        11   6586.4956      1.5528826      0.87474376     4.1303691     -150.81653    
        12   7343.1521      1.6103618      0.6161003      4.124816      -74.579791    
Loop time of 0.00316642 on 2 procs for 1 steps with 3 atoms

run 1 pre no post no update no
   Step          Temp          E_pair         E_mol          TotEng         Press     
        12   7343.1521      1.6103618      0.6161003      4.124816      -74.579791    
        13   7945.3668      1.6738323      0.39479041     4.1226613     -1.2026167    
Loop time of 0.00312844 on 2 procs for 1 steps with 3 atoms

run 1 pre no post no update no
   Step          Temp          E_pair         E_mol          TotEng         Press     
        13   7945.3668      1.6738323      0.39479041     4.1226613     -1.2026167    
        14   8358.6338      1.7416796      0.21946058     4.1220166      67.264588    
Loop time of 0.00315866 on 2 procs for 1 steps with 3 atoms

run 1 pre no post no update no
   Step          Temp          E_pair         E_mol          TotEng         Press     
        14   8358.6338      1.7416796      0.21946058     4.1220166      67.264588    
        15   8567.0761      1.8120809      0.095168591    4.1220125      129.23427    
Loop time of 0.00313114 on 2 procs for 1 steps with 3 atoms

run 1 pre no post no update no
   Step          Temp          E_pair         E_mol          TotEng         Press     
        15   8567.0761      1.8120809      0.095168591    4.1220125      129.23427    
        16   8572.7114      1.8831452      0.022982383    4.1223474      183.63864    
Loop time of 0.00334836 on 2 procs for 1 steps with 3 atoms

run 1 pre no post no update no
   Step          Temp          E_pair         E_mol          TotEng         Press     
        16   8572.7114      1.8831452      0.022982383    4.1223474      183.63864    
        17   8393.5229      1.953026       8.8554107e-07  4.1229229      229.93095    
Loop time of 0.00338135 on 2 procs for 1 steps with 3 atoms

run 1 pre no post no update no
   Step          Temp          E_pair         E_mol          TotEng         Press     
        17   8393.5229      1.953026       8.8554107e-07  4.1229229      229.93095    
        18   8061.1109      2.0200015      0.019717919    4.1236801      268.05237    
Loop time of 0.00337713 on 2 procs for 1 steps with 3 atoms

run 1 pre no post no update no
   Step          Temp          E_pair         E_mol          TotEng         Press     
        18   8061.1109      2.0200015      0.019717919    4.1236801      268.05237    
        19   7617.7685      2.0825313      0.072675658    4.1245546      298.36738    
Loop time of 0.00330657 on 2 procs for 1 steps with 3 atoms

run 1 pre no post no update no
   Step          Temp          E_pair         E_mol          TotEng         Press     
        19   7617.7685      2.0825313      0.072675658    4.1245546      298.36738    
        20   7112.8637      2.1393018      0.1473569      4.1254782      321.56984    
Loop time of 0.00349503 on 2 procs for 1 steps with 3 atoms

run 1 pre yes post no update no
Per MPI rank memory allocation (min/avg/max) = 9.142 | 9.262 | 9.381 Mbytes
   Step          Temp          E_pair         E_mol          TotEng         Press     
        20   7112.8637      2.1393018      0.1473569      4.1254782      321.56984    
        21   6598.652       2.1892337      0.23125178     4.1263709      338.56511    
Loop time of 0.00314511 on 2 procs for 1 steps with 3 atoms

run 1 pre no post no update no
   Step          Temp          E_pair         E_mol          TotEng         Press     
        21   6598.652       2.1892337      0.23125178     4.1263709      338.56511    
        22   6125.7938      2.2314984      0.31201647     4.1271568      350.3397     
Loop time of 0.00327824 on 2 procs for 1 steps with 3 atoms

run 1 pre no post no update no
   Step          Temp          E_pair         E_mol          TotEng         Press     
        22   6125.7938      2.2314984      0.31201647     4.1271568      350.3397     
        23   5738.9362      2.2655095      0.3786254      4.1277663      357.82946    
Loop time of 0.00327538 on 2 procs for 1 steps with 3 atoms

run 1 pre no post no update no
   Step          Temp          E_pair         E_mol          TotEng         Press     
        23   5738.9362      2.2655095      0.3786254      4.1277663      357.82946    
        24   5472.7572      2.2909171      0.4224089      4.1281447      361.80027    
Loop time of 0.00362234 on 2 procs for 1 steps with 3 atoms

run 1 pre no post no update no
   Step          Temp          E_pair         E_mol          TotEng         Press     
        24   5472.7572      2.2909171      0.4224089      4.1281447      361.80027    
        25   5348.8695      2.3075965      0.43787008     4.1282579      362.75349    
Loop time of 0.00281649 on 2 procs for 1 steps with 3 atoms

run 1 pre no post no update no
   Step          Temp          E_pair         E_mol          TotEng         Press     
        25   5348.8695      2.3075965      0.43787008     4.1282579      362.75349    
        26   5373.9189      2.315639       0.4231913      4.1280974      360.86709    
Loop time of 0.00259008 on 2 procs for 1 steps with 3 atoms

run 1 pre no post no update no
   Step          Temp          E_pair         E_mol          TotEng         Press     
        26   5373.9189      2.315639       0.4231913      4.1280974      360.86709    
        27   5539.0935      2.3153392      0.38037273     4.12768        355.97867    
Loop time of 0.00250585 on 2 procs for 1 steps with 3 atoms

run 1 pre no post no update no
   Step          Temp          E_pair         E_mol          TotEng         Press     
        27   5539.0935      2.3153392      0.38037273     4.12768        355.97867    
        28   5821.0965      2.3071875      0.31498908     4.1270481      347.61264    
Loop time of 0.00249706 on 2 procs for 1 steps with 3 atoms

run 1 pre no post no update no
   Step          Temp          E_pair         E_mol          TotEng         Press     
        28   5821.0965      2.3071875      0.31498908     4.1270481      347.61264    
        29   6184.4666      2.2918534      0.23559632     4.1262599      335.04721    
Loop time of 0.00248629 on 2 procs for 1 steps with 3 atoms

run 1 pre no post no update no
   Step          Temp          E_pair         E_mol          TotEng         Press     
        29   6184.4666      2.2918534      0.23559632     4.1262599      335.04721    
        30   6584.9733      2.2701802      0.15286011     4.1253895      317.41394    
Loop time of 0.00257818 on 2 procs for 1 steps with 3 atoms

run 1 pre yes post no update no
Per MPI rank memory allocation (min/avg/max) = 9.142 | 9.262 | 9.381 Mbytes
   Step          Temp          E_pair         E_mol          TotEng         Press     
        30   6584.9733      2.2701802      0.15286011     4.1253895      317.41394    
        31   6973.7241      2.2431598      0.078503494    4.1245125      293.81743    
Loop time of 0.00245945 on 2 procs for 1 steps with 3 atoms

run 1 pre no post no update no
   Step          Temp          E_pair         E_mol          TotEng         Press     
        31   6973.7241      2.2431598      0.078503494    4.1245125      293.81743    
        32   7301.5744      2.2119162      0.024181488    4.1237028      263.46343    
Loop time of 0.00376666 on 2 procs for 1 steps with 3 atoms

run 1 pre no post no update no
   Step          Temp          E_pair         E_mol          TotEng         Press     
        32   7301.5744      2.2119162      0.024181488    4.1237028      263.46343    
        33   7523.4466      2.1776766      0.00038677024  4.123027       225.7824     
Loop time of 0.00248914 on 2 procs for 1 steps with 3 atoms

run 1 pre no post no update no
   Step          Temp          E_pair         E_mol          TotEng         Press     
        33   7523.4466      2.1776766      0.00038677024  4.123027       225.7824     
        34   7602.2105      2.1417362      0.015477262    4.1225391      180.53741    
Loop time of 0.0030165 on 2 procs for 1 steps with 3 atoms

run 1 pre no post no update no
   Step          Temp          E_pair         E_mol          TotEng         Press     
        34   7602.2105      2.1417362      0.015477262    4.1225391      180.53741    
        35   7511.8425      2.1054145      0.074898417    4.1222767      127.90746    
Loop time of 0.0026317 on 2 procs for 1 steps with 3 atoms

run 1 pre no post no update no
   Step          Temp          E_pair         E_mol          TotEng         Press     
        35   7511.8425      2.1054145      0.074898417    4.1222767      127.90746    
        36   7239.6559      2.07001        0.18065276     4.1222607      68.539573    
Loop time of 0.00281292 on 2 procs for 1 steps with 3 atoms

run 1 pre no post no update no
   Step          Temp          E_pair         E_mol          TotEng         Press     
        36   7239.6559      2.07001        0.18065276     4.1222607      68.539573    
        37   6787.4697      2.0367472      0.33104885     4.1224947      3.5654941    
Loop time of 0.00288974 on 2 procs for 1 steps with 3 atoms

run 1 pre no post no update no
   Step          Temp          E_pair         E_mol          TotEng         Press     
        37   6787.4697      2.0367472      0.33104885     4.1224947      3.5654941    
        38   6171.6624      2.0067377      0.5207419      4.1229795     -65.418018    
Loop time of 0.00289559 on 2 procs for 1 steps with 3 atoms

run 1 pre no post no update no
   Step          Temp          E_pair         E_mol          TotEng         Press     
        38   6171.6624      2.0067377      0.5207419      4.1229795     -65.418018    
        39   5422.1164      1.9809317      0.7410597      4.1237185     -136.4058     
Loop time of 0.00286907 on 2 procs for 1 steps with 3 atoms

run 1 pre no post no update no
   Step          Temp          E_pair         E_mol          TotEng         Press     
        39   5422.1164      1.9809317      0.7410597      4.1237185     -136.4058     
        40   4580.0948      1.960091       0.98058992     4.1247283     -207.07458    
Loop time of 0.00294141 on 2 procs for 1 steps with 3 atoms

run 1 pre yes post no update no
Per MPI rank memory allocation (min/avg/max) = 9.142 | 9.262 | 9.381 Mbytes
   Step          Temp          E_pair         E_mol          TotEng         Press     
        40   4580.0948      1.960091       0.98058992     4.1247283     -207.07458    
        41   3695.1265      1.9447775      1.2259865      4.1260292     -274.90347    
Loop time of 0.00292932 on 2 procs for 1 steps with 3 atoms

run 1 pre no post no update no
   Step          Temp          E_pair         E_mol          TotEng         Press     
        41   3695.1265      1.9447775      1.2259865      4.1260292     -274.90347    
        42   2821.0971      1.9353427      1.4629315      4.1275851     -337.31712    
Loop time of 0.00291252 on 2 procs for 1 steps with 3 atoms

run 1 pre no post no update no
   Step          Temp          E_pair         E_mol          TotEng         Press     
        42   2821.0971      1.9353427      1.4629315      4.1275851     -337.31712    
        43   2011.9664      1.9319553      1.6771691      4.1292586     -391.83663    
Loop time of 0.0031994 on 2 procs for 1 steps with 3 atoms

run 1 pre no post no update no
   Step          Temp          E_pair         E_mol          TotEng         Press     
        43   2011.9664      1.9319553      1.6771691      4.1292586     -391.83663    
        44   1317.6878      1.9346203      1.8555181      4.1307874     -436.22318    
Loop time of 0.00342825 on 2 procs for 1 steps with 3 atoms

run 1 pre no post no update no
   Step          Temp          E_pair         E_mol          TotEng         Press     
        44   1317.6878      1.9346203      1.8555181      4.1307874     -436.22318    
        45   780.79131      1.9432284      1.9867855      4.1318643     -468.59994    
Loop time of 0.00337714 on 2 procs for 1 steps with 3 atoms

run 1 pre no post no update no
   Step          Temp          E_pair         E_mol          TotEng         Press     
        45   780.79131      1.9432284      1.9867855      4.1318643     -468.59994    
        46   433.76243      1.9575921      2.0625277      4.1322562     -487.54922    
Loop time of 0.00351485 on 2 procs for 1 steps with 3 atoms

run 1 pre no post no update no
   Step          Temp          E_pair         E_mol          TotEng         Press     
        46   433.76243      1.9575921      2.0625277      4.1322562     -487.54922    
        47   297.06459      1.9774837      2.077632       4.1319129     -492.18662    
Loop time of 0.00391744 on 2 procs for 1 steps with 3 atoms

run 1 pre no post no update no
   Step          Temp          E_pair         E_mol          TotEng         Press     
        47   297.06459      1.9774837      2.077632       4.1319129     -492.18662    
        48   377.64071      2.0026546      2.0307007      4.1309831     -482.21561    
Loop time of 0.00294027 on 2 procs for 1 steps with 3 atoms

run 1 pre no post no update no
   Step          Temp          E_pair         E_mol          TotEng         Press     
        48   377.64071      2.0026546      2.0307007      4.1309831     -482.21561    
        49   667.94787      2.0328383      1.924214       4.1297303     -457.95962    
Loop time of 0.00280016 on 2 procs for 1 steps with 3 atoms

run 1 pre no post no update no
   Step          Temp          E_pair         E_mol          TotEng         Press     
        49   667.94787      2.0328383      1.924214       4.1297303     -457.95962    
        50   1145.8389      2.0677419      1.7644417      4.1284062     -420.36296    
Loop time of 0.00304197 on 2 procs for 1 steps with 3 atoms

run 1 pre yes post no update no
Per MPI rank memory allocation (min/avg/max) = 9.142 | 9.262 | 9.381 Mbytes
   Step          Temp          E_pair         E_mol          TotEng         Press     
        50   1145.8389      2.0677419      1.7644417      4.1284062     -420.36296    
        51   1775.6689      2.1070299      1.5610823      4.1271587     -370.9504     
Loop time of 0.00295375 on 2 procs for 1 steps with 3 atoms

run 1 pre no post no update no
   Step          Temp          E_pair         E_mol          TotEng         Press     
        51   1775.6689      2.1070299      1.5610823      4.1271587     -370.9504     
        52   2510.7704      2.150308       1.3266321      4.1260252     -311.74158    
Loop time of 0.00292351 on 2 procs for 1 steps with 3 atoms

run 1 pre no post no update no
   Step          Temp          E_pair         E_mol          TotEng         Press     
        52   2510.7704      2.150308       1.3266321      4.1260252     -311.74158    
        53   3297.0386      2.1971117      1.0755271      4.1249902     -245.12672    
Loop time of 0.00287214 on 2 procs for 1 steps with 3 atoms

run 1 pre no post no update no
   Step          Temp          E_pair         E_mol          TotEng         Press     
        53   3297.0386      2.1971117      1.0755271      4.1249902     -245.12672    
        54   4077.0991      2.2468951      0.82313478     4.1240427     -173.7191     
Loop time of 0.00296128 on 2 procs for 1 steps with 3 atoms

run 1 pre no post no update no
   Step          Temp          E_pair         E_mol          TotEng         Press     
        54   4077.0991      2.2468951      0.82313478     4.1240427     -173.7191     
        55   4794.562       2.2990307      0.58468153     4.1232038     -100.19925    
Loop time of 0.00288824 on 2 procs for 1 steps with 3 atoms

run 1 pre no post no update no
   Step          Temp          E_pair         E_mol          TotEng         Press     
        55   4794.562       2.2990307      0.58468153     4.1232038     -100.19925    
        56   5398.053       2.3528038      0.37420217     4.1225121     -27.16365     
Loop time of 0.00282784 on 2 procs for 1 steps with 3 atoms

run 1 pre no post no update no
   Step          Temp          E_pair         E_mol          TotEng         Press     
        56   5398.053       2.3528038      0.37420217     4.1225121     -27.16365     
        57   5844.8229      2.407425       0.20358239     4.1220127      43.014748    
Loop time of 0.00285283 on 2 procs for 1 steps with 3 atoms

run 1 pre no post no update no
   Step          Temp          E_pair         E_mol          TotEng         Press     
        57   5844.8229      2.407425       0.20358239     4.1220127      43.014748    
        58   6103.749       2.4620387      0.081758729    4.1217404      108.30575    
Loop time of 0.00283387 on 2 procs for 1 steps with 3 atoms

run 1 pre no post no update no
   Step          Temp          E_pair         E_mol          TotEng         Press     
        58   6103.749       2.4620387      0.081758729    4.1217404      108.30575    
        59   6157.5274      2.5157387      0.014128763    4.1217132      167.1145     
Loop time of 0.002825 on 2 procs for 1 steps with 3 atoms

run 1 pre no post no update no
   Step          Temp          E_pair         E_mol          TotEng         Press     
        59   6157.5274      2.5157387      0.014128763    4.1217132      167.1145     
        60   6003.8993      2.5675947      0.0022113526   4.1219359      218.34192    
Loop time of 0.00279002 on 2 procs for 1 steps with 3 atoms

run 1 pre yes post no update no
Per MPI rank memory allocation (min/avg/max) = 9.142 | 9.262 | 9.381 Mbytes
   Step          Temp          E_pair         E_mol          TotEng         Press     
        60   6003.8993      2.5675947      0.0022113526   4.1219359      218.34192    
        61   5655.8266      2.6166676      0.043579613    4.1223931      261.40888    
Loop time of 0.00142043 on 2 procs for 1 steps with 3 atoms

run 1 pre no post no update no
   Step          Temp          E_pair         E_mol          TotEng         Press     
        61   5655.8266      2.6166676      0.043579613    4.1223931      261.40888    
        62   5140.6057      2.6620323      0.1320708      4.123054       296.24447    
Loop time of 0.00144665 on 2 procs for 1 steps with 3 atoms

run 1 pre no post no update no
   Step          Temp          E_pair         E_mol          TotEng         Press     
        62   5140.6057      2.6620323      0.1320708      4.123054       296.24447    
        63   4497.9818      2.7027958      0.25825872     4.1238741      323.23907    
Loop time of 0.00140566 on 2 procs for 1 steps with 3 atoms

run 1 pre no post no update no
   Step          Temp          E_pair         E_mol          TotEng         Press     
        63   4497.9818      2.7027958      0.25825872     4.1238741      323.23907    
        64   3777.3906      2.738107       0.41015677     4.1247958      343.16682    
Loop time of 0.00140543 on 2 procs for 1 steps with 3 atoms

run 1 pre no post no update no
   Step          Temp          E_pair         E_mol          TotEng         Press     
        64   3777.3906      2.738107       0.41015677     4.1247958      343.16682    
        65   3034.5088      2.7671699      0.57410461     4.1257566      357.08346    
Loop time of 0.00160158 on 2 procs for 1 steps with 3 atoms

run 1 pre no post no update no
   Step          Temp          E_pair         E_mol          TotEng         Press     
        65   3034.5088      2.7671699      0.57410461     4.1257566      357.08346    
        66   2327.3428      2.789243       0.73577898     4.1266873      366.20686    
Loop time of 0.00139247 on 2 procs for 1 steps with 3 atoms

run 1 pre no post no update no
   Step          Temp          E_pair         E_mol          TotEng         Press     
        66   2327.3428      2.789243       0.73577898     4.1266873      366.20686    
        67   1712.1152      2.8036455      0.88126042     4.1275224      371.78968    
Loop time of 0.00146832 on 2 procs for 1 steps with 3 atoms

run 1 pre no post no update no
   Step          Temp          E_pair         E_mol          TotEng         Press     
        67   1712.1152      2.8036455      0.88126042     4.1275224      371.78968    
        68   1239.2283      2.8097526      0.99808264     4.1282009      374.99311    
Loop time of 0.0014077 on 2 procs for 1 steps with 3 atoms

run 1 pre no post no update no
   Step          Temp          E_pair         E_mol          TotEng         Press     
        68   1239.2283      2.8097526      0.99808264     4.1282009      374.99311    
        69   949.58843      2.8069936      1.0761897      4.1286712      376.77136    
Loop time of 0.00146757 on 2 procs for 1 steps with 3 atoms

run 1 pre no post no update no
   Step          Temp          E_pair         E_mol          TotEng         Press     
        69   949.58843      2.8069936      1.0761897      4.1286712      376.77136    
        70   871.55807      2.7948516      1.1087302      4.1288973      377.77627    
Loop time of 0.00141199 on 2 procs for 1 steps with 3 atoms

run 1 pre yes post no update no
Per MPI rank memory allocation (min/avg/max) = 9.142 | 9.262 | 9.381 Mbytes
   Step          Temp          E_pair         E_mol          TotEng         Press     
        70   871.55807      2.7948516      1.1087302      4.1288973      377.77627    
        71   1018.7744      2.7728593      1.0926263      4.1288594      378.28923    
Loop time of 0.00137772 on 2 procs for 1 steps with 3 atoms

run 1 pre no post no update no
   Step          Temp          E_pair         E_mol          TotEng         Press     
        71   1018.7744      2.7728593      1.0926263      4.1288594      378.28923    
        72   1389.0126      2.7406007      1.0288685      4.1285572      378.18694    
Loop time of 0.00135824 on 2 procs for 1 steps with 3 atoms

run 1 pre no post no update no
   Step          Temp          E_pair         E_mol          TotEng         Press     
        72   1389.0126      2.7406007      1.0288685      4.1285572      378.18694    
        73   1964.2003      2.6977161      0.92250904     4.1280108      376.94411    
Loop time of 0.00140917 on 2 procs for 1 steps with 3 atoms

run 1 pre no post no update no
   Step          Temp          E_pair         E_mol          TotEng         Press     
        73   1964.2003      2.6977161      0.92250904     4.1280108      376.94411    
        74   2711.5958      2.6439057      0.78234821     4.1272564      373.6736     
Loop time of 0.00140099 on 2 procs for 1 steps with 3 atoms

run 1 pre no post no update no
   Step          Temp          E_pair         E_mol          TotEng         Press     
        74   2711.5958      2.6439057      0.78234821     4.1272564      373.6736     
        75   3586.0463      2.5789464      0.62033493     4.126347       367.20178    
Loop time of 0.00142362 on 2 procs for 1 steps with 3 atoms

run 1 pre no post no update no
   Step          Temp          E_pair         E_mol          TotEng         Press     
        75   3586.0463      2.5789464      0.62033493     4.126347       367.20178    
        76   4533.1482      2.5027097      0.45072582     4.1253463      356.17323    
Loop time of 0.00143153 on 2 procs for 1 steps with 3 atoms

run 1 pre no post no update no
   Step          Temp          E_pair         E_mol          TotEng         Press     
        76   4533.1482      2.5027097      0.45072582     4.1253463      356.17323    
        77   5493.0592      2.4151892      0.28906679     4.1243232      339.17738    
Loop time of 0.0142181 on 2 procs for 1 steps with 3 atoms

run 1 pre no post no update no
   Step          Temp          E_pair         E_mol          TotEng         Press     
        77   5493.0592      2.4151892      0.28906679     4.1243232      339.17738    
        78   6404.658       2.3165396      0.15107364     4.1233473      314.8879     
Loop time of 0.00281016 on 2 procs for 1 steps with 3 atoms

run 1 pre no post no update no
   Step          Temp          E_pair         E_mol          TotEng         Press     
        78   6404.658       2.3165396      0.15107364     4.1233473      314.8879     
        79   7209.7252      2.2071276      0.051493853    4.1224817      282.20494    
Loop time of 0.00275321 on 2 procs for 1 steps with 3 atoms

run 1 pre no post no update no
   Step          Temp          E_pair         E_mol          TotEng         Press     
        79   7209.7252      2.2071276      0.051493853    4.1224817      282.20494    
        80   7856.8272      2.0876007      0.0030303571   4.1217804      240.39114    
Loop time of 0.00285077 on 2 procs for 1 steps with 3 atoms

run 1 pre yes post no update no
Per MPI rank memory allocation (min/avg/max) = 9.142 | 9.262 | 9.381 Mbytes
   Step          Temp          E_pair         E_mol          TotEng         Press     
        80   7856.8272      2.0876007      0.0030303571   4.1217804      240.39114    
        81   8304.6144      1.9589725      0.015399702    4.1212835      189.19269    
Loop time of 0.00297496 on 2 procs for 1 steps with 3 atoms

run 1 pre no post no update no
   Step          Temp          E_pair         E_mol          TotEng         Press     
        81   8304.6144      1.9589725      0.015399702    4.1212835      189.19269    
        82   8524.3634      1.8227285      0.094584272    4.1210337      128.93955    
Loop time of 0.00325807 on 2 procs for 1 steps with 3 atoms

run 1 pre no post no update no
   Step          Temp          E_pair         E_mol          TotEng         Press     
        82   8524.3634      1.8227285      0.094584272    4.1210337      128.93955    
        83   8502.2547      1.6809414      0.24232184     4.1212686      60.628585    
Loop time of 0.00333726 on 2 procs for 1 steps with 3 atoms

run 1 pre no post no update no
   Step          Temp          E_pair         E_mol          TotEng         Press     
        83   8502.2547      1.6809414      0.24232184     4.1212686      60.628585    
        84   8245.2038      1.5363858      0.45587779     4.1238161     -13.956359    
Loop time of 0.00316643 on 2 procs for 1 steps with 3 atoms

run 1 pre no post no update no
   Step          Temp          E_pair         E_mol          TotEng         Press     
        84   8245.2038      1.5363858      0.45587779     4.1238161     -13.956359    
        85   7800.7838      1.3925246      0.72830207     4.1374876     -91.95857     
Loop time of 0.00314398 on 2 procs for 1 steps with 3 atoms

run 1 pre no post no update no
   Step          Temp          E_pair         E_mol          TotEng         Press     
        85   7800.7838      1.3925246      0.72830207     4.1374876     -91.95857     
        86   7292.053       1.2531367      1.0500248      4.1883052     -169.12007    
Loop time of 0.00304763 on 2 procs for 1 steps with 3 atoms

run 1 pre no post no update no
   Step          Temp          E_pair         E_mol          TotEng         Press     
        86   7292.053       1.2531367      1.0500248      4.1883052     -169.12007    
        87   6911.8115      1.1213901      1.413272       4.3215056     -240.4435     
Loop time of 0.00299333 on 2 procs for 1 steps with 3 atoms

run 1 pre no post no update no
   Step          Temp          E_pair         E_mol          TotEng         Press     
        87   6911.8115      1.1213901      1.413272       4.3215056     -240.4435     
        88   6789.1939      0.99952379     1.8179437      4.5726119     -302.75305    
Loop time of 0.0030609 on 2 procs for 1 steps with 3 atoms

run 1 pre no post no update no
   Step          Temp          E_pair         E_mol          TotEng         Press     
        88   6789.1939      0.99952379     1.8179437      4.5726119     -302.75305    
        89   6855.0833      0.8915523      2.270205       4.9339355     -355.713      
Loop time of 0.0030421 on 2 procs for 1 steps with 3 atoms

run 0 pre yes post no
PPPM initialization ...
  using 12-bit tables for long-range coulomb (src/kspace.cpp:342)
  G vector (1/distance) = 0.28934131
  grid = 18 18 18
  stencil order = 5
  estimated absolute RMS force accuracy = 7.7110449e-05
  estimated relative force accuracy = 5.3550243e-06
  using double precision KISS FFT
  3d grid and FFT values/proc = 10000 2916
Generated 0 of 21 mixed pair_coeff terms from geometric mixing rule
Per MPI rank memory allocation (min/avg/max) = 9.142 | 9.262 | 9.381 Mbytes
   Step          Temp          E_pair         E_mol          TotEng         Press     
        89   6855.0833      0.8915523      2.270205       4.9339355     -355.713      
Loop time of 1.6875e-06 on 2 procs for 0 steps with 3 atoms

run 0 pre yes post no
PPPM initialization ...
  using 12-bit tables for long-range coulomb (src/kspace.cpp:342)
  G vector (1/distance) = 0.28934131
  grid = 18 18 18
  stencil order = 5
  estimated absolute RMS force accuracy = 7.7110449e-05
  estimated relative force accuracy = 5.3550243e-06
  using double precision KISS FFT
  3d grid and FFT values/proc = 10000 2916
Generated 0 of 21 mixed pair_coeff terms from geometric mixing rule
Per MPI rank memory allocation (min/avg/max) = 9.142 | 9.262 | 9.381 Mbytes
   Step          Temp          E_pair         E_mol          TotEng         Press     
        89   6855.0833      0.8915523      2.270205       4.9339355     -355.713      
Loop time of 2.8845e-06 on 2 procs for 0 steps with 3 atoms

clear
OMP_NUM_THREADS environment is not set. Defaulting to 1 thread. (src/comm.cpp:98)
  using 1 OpenMP thread(s) per MPI task
units metal
atom_style full
boundary p p p
read_data /tmp/mustard.13e25e9621594b2cbe116fd2c800b3e6
Reading data file ...
  triclinic box = (0 0 0) to (25.319 25.319 25.319) with tilt (0 0 0)
  1 by 1 by 2 MPI processor grid
  reading atoms ...
  3 atoms
  reading velocities ...
  3 velocities
  scanning bonds ...
  1 = max bonds/atom
  reading bonds ...
  1 bonds
Finding 1-2 1-3 1-4 neighbors ...
  special bond factors lj:    0        0        0       
  special bond factors coul:  0        0        0       
     1 = max # of 1-2 neighbors
     0 = max # of 1-3 neighbors
     0 = max # of 1-4 neighbors
     1 = max # of special neighbors
  special bonds CPU = 0.000 seconds
  read_data CPU = 0.001 seconds

change_box all triclinic
Changing box ...
  triclinic box = (0 0 0) to (25.319 25.319 25.319) with tilt (0 0 0)
include ff.lmp
##############################################################################################
#### Atoms' types - mass - charge
##############################################################################################
#@ 7   atom types

variable Ba  equal 1
variable Zr  equal 2
variable  Y  equal 3
variable O1  equal 4
variable O2  equal 5
variable O3  equal 6
variable H1  equal 7

##############################################################################################
#### Atoms' masses
##############################################################################################

mass  ${Ba}   137.327
mass  1   137.327
mass  ${Zr}    91.224
mass  2    91.224
mass  ${Y}     88.910
mass  3     88.910
mass  ${O1}    100000
mass  4    100000
# mass  ${O1}    15.996
mass  ${O2}    100000
mass  5    100000
# mass  ${O2}    15.996
mass  ${O3}    15.996
mass  6    15.996
mass  ${H1}     1.008
mass  7     1.008

##############################################################################################
#### Atoms' charges
##############################################################################################

set type ${Ba}  charge     2.000000
set type 1  charge     2.000000
Setting atom values ...
  0 settings made for charge
set type ${Zr}  charge     4.000000
set type 2  charge     4.000000
Setting atom values ...
  0 settings made for charge
set type ${Y}   charge     3.000000
set type 3   charge     3.000000
Setting atom values ...
  0 settings made for charge
set type ${O1}  charge    -1.308698
set type 4  charge    -1.308698
Setting atom values ...
  1 settings made for charge
set type ${O2}  charge    -2.000000
set type 5  charge    -2.000000
Setting atom values ...
  1 settings made for charge
set type ${O3}  charge    -2.000000
set type 6  charge    -2.000000
Setting atom values ...
  0 settings made for charge
set type ${H1}  charge     0.308698
set type 7  charge     0.308698
Setting atom values ...
  1 settings made for charge

##############################################################################################
#### Covalent bonds parameters
##############################################################################################
#@  1   bond types

bond_style harmonic
#@ O1 - H1
# bond_coeff   1      11.504000      0.985357
bond_coeff   1      23.008000      0.985357

##############################################################################################
# Pair potentials
##############################################################################################

variable rmin  equal  8.
variable rmax  equal 10.

pair_style hybrid/overlay buck/mdf ${rmin} ${rmax} lennard/mdf ${rmin} ${rmax} coul/long ${rmax}
pair_style hybrid/overlay buck/mdf 8 ${rmax} lennard/mdf ${rmin} ${rmax} coul/long ${rmax}
pair_style hybrid/overlay buck/mdf 8 10 lennard/mdf ${rmin} ${rmax} coul/long ${rmax}
pair_style hybrid/overlay buck/mdf 8 10 lennard/mdf 8 ${rmax} coul/long ${rmax}
pair_style hybrid/overlay buck/mdf 8 10 lennard/mdf 8 10 coul/long ${rmax}
pair_style hybrid/overlay buck/mdf 8 10 lennard/mdf 8 10 coul/long 10

##############################################################################################
# Buckingham interaction potentials
pair_coeff  ${Ba}  ${O1}  buck/mdf   688.21662   0.392014   0.000
pair_coeff  1  ${O1}  buck/mdf   688.21662   0.392014   0.000
pair_coeff  1  4  buck/mdf   688.21662   0.392014   0.000
pair_coeff  ${Ba}  ${O2}  buck/mdf   972.19945   0.392014   0.000
pair_coeff  1  ${O2}  buck/mdf   972.19945   0.392014   0.000
pair_coeff  1  5  buck/mdf   972.19945   0.392014   0.000
pair_coeff  ${Ba}  ${O3}  buck/mdf   972.19945   0.392014   0.000
pair_coeff  1  ${O3}  buck/mdf   972.19945   0.392014   0.000
pair_coeff  1  6  buck/mdf   972.19945   0.392014   0.000

pair_coeff  ${Y}   ${O1}  buck/mdf   2972.3808   0.267317   0.000
pair_coeff  3   ${O1}  buck/mdf   2972.3808   0.267317   0.000
pair_coeff  3   4  buck/mdf   2972.3808   0.267317   0.000
pair_coeff  ${Y}   ${O2}  buck/mdf   4121.8373   0.280386   0.000
pair_coeff  3   ${O2}  buck/mdf   4121.8373   0.280386   0.000
pair_coeff  3   5  buck/mdf   4121.8373   0.280386   0.000
pair_coeff  ${Y}   ${O3}  buck/mdf   4121.8373   0.280386   0.000
pair_coeff  3   ${O3}  buck/mdf   4121.8373   0.280386   0.000
pair_coeff  3   6  buck/mdf   4121.8373   0.280386   0.000

pair_coeff  ${Zr}  ${O1}  buck/mdf   2195.8712   0.298760   0.000
pair_coeff  2  ${O1}  buck/mdf   2195.8712   0.298760   0.000
pair_coeff  2  4  buck/mdf   2195.8712   0.298760   0.000
pair_coeff  ${Zr}  ${O2}  buck/mdf   3250.8545   0.298760   0.000
pair_coeff  2  ${O2}  buck/mdf   3250.8545   0.298760   0.000
pair_coeff  2  5  buck/mdf   3250.8545   0.298760   0.000
pair_coeff  ${Zr}  ${O3}  buck/mdf   3250.8545   0.298760   0.000
pair_coeff  2  ${O3}  buck/mdf   3250.8545   0.298760   0.000
pair_coeff  2  6  buck/mdf   3250.8545   0.298760   0.000

pair_coeff  ${O1}  ${O1}  buck/mdf   22764.000   0.149000   0.000
pair_coeff  4  ${O1}  buck/mdf   22764.000   0.149000   0.000
pair_coeff  4  4  buck/mdf   22764.000   0.149000   0.000
pair_coeff  ${O1}  ${O2}  buck/mdf   22764.000   0.149000   0.000
pair_coeff  4  ${O2}  buck/mdf   22764.000   0.149000   0.000
pair_coeff  4  5  buck/mdf   22764.000   0.149000   0.000
pair_coeff  ${O1}  ${O3}  buck/mdf   22764.000   0.149000   0.000
pair_coeff  4  ${O3}  buck/mdf   22764.000   0.149000   0.000
pair_coeff  4  6  buck/mdf   22764.000   0.149000   0.000

pair_coeff  ${O2}  ${O2}  buck/mdf   22764.000   0.149000   0.000
pair_coeff  5  ${O2}  buck/mdf   22764.000   0.149000   0.000
pair_coeff  5  5  buck/mdf   22764.000   0.149000   0.000
pair_coeff  ${O2}  ${O3}  buck/mdf   22764.000   0.149000   0.000
pair_coeff  5  ${O3}  buck/mdf   22764.000   0.149000   0.000
pair_coeff  5  6  buck/mdf   22764.000   0.149000   0.000

pair_coeff  ${O3}  ${O3}  buck/mdf   22764.000   0.149000   0.000
pair_coeff  6  ${O3}  buck/mdf   22764.000   0.149000   0.000
pair_coeff  6  6  buck/mdf   22764.000   0.149000   0.000

##############################################################################################
# 12-6 Lennard-Jones potentials
pair_coeff  ${O1}  ${H1}  lennard/mdf    6.391   0.000
pair_coeff  4  ${H1}  lennard/mdf    6.391   0.000
pair_coeff  4  7  lennard/mdf    6.391   0.000
pair_coeff  ${O2}  ${H1}  lennard/mdf    6.391   0.000
pair_coeff  5  ${H1}  lennard/mdf    6.391   0.000
pair_coeff  5  7  lennard/mdf    6.391   0.000
pair_coeff  ${O3}  ${H1}  lennard/mdf    7.800   0.000
pair_coeff  6  ${H1}  lennard/mdf    7.800   0.000
pair_coeff  6  7  lennard/mdf    7.800   0.000

##############################################################################################
# Coulombic interaction
pair_coeff      *      *  coul/long

#########################################################################################################
# Parameters for reciprocal space electrostatics
#########################################################################################################

kspace_style pppm 1.0e-5
kspace_modify fftbench no
fix md all nve
timestep 0.0002

change_box all x final 0.0 25.319 y final 0.0 25.319 z final 0.0 25.319 xy final 0.0 xz final 0.0 yz final 0.0
Changing box ...
  triclinic box = (0 0 0) to (25.319 25.319 25.319) with tilt (0 0 0)
  triclinic box = (0 0 0) to (25.319 25.319 25.319) with tilt (0 0 0)
  triclinic box = (0 0 0) to (25.319 25.319 25.319) with tilt (0 0 0)
  triclinic box = (0 0 0) to (25.319 25.319 25.319) with tilt (0 0 0)
  triclinic box = (0 0 0) to (25.319 25.319 25.319) with tilt (0 0 0)
  triclinic box = (0 0 0) to (25.319 25.319 25.319) with tilt (0 0 0)
reset_timestep 89
fix ux all store/state 1 xu yu zu
fix ext all external pf/callback 1 1
fix_modify ext energy no
fix_modify ext virial no
compute get_pe all pe

run 0 pre yes post no
PPPM initialization ...
WARNING: System is not charge neutral, net charge = -3 (src/kspace.cpp:327)
  using 12-bit tables for long-range coulomb (src/kspace.cpp:342)
  G vector (1/distance) = 0.28934131
  grid = 18 18 18
  stencil order = 5
  estimated absolute RMS force accuracy = 7.7110449e-05
  estimated relative force accuracy = 5.3550243e-06
  using double precision KISS FFT
  3d grid and FFT values/proc = 10000 2916
Generated 0 of 21 mixed pair_coeff terms from geometric mixing rule
Neighbor list info ...
  update: every = 1 steps, delay = 0 steps, check = yes
  max neighbors/atom: 2000, page size: 100000
  master list distance cutoff = 12
  ghost atom cutoff = 12
  binsize = 6, bins = 5 5 5
  3 neighbor lists, perpetual/occasional/extra = 3 0 0
  (1) pair buck/mdf, perpetual, skip from (3)
      attributes: half, newton on
      pair build: skip
      stencil: none
      bin: none
  (2) pair lennard/mdf, perpetual, skip from (3)
      attributes: half, newton on
      pair build: skip
      stencil: none
      bin: none
  (3) pair coul/long, perpetual
      attributes: half, newton on
      pair build: half/bin/newton/tri
      stencil: half/bin/3d/tri
      bin: standard
Per MPI rank memory allocation (min/avg/max) = 9.142 | 9.262 | 9.381 Mbytes
   Step          Temp          E_pair         E_mol          TotEng         Press     
        89   6799.3403      0.89499849     2.25186        4.9046259     -354.62322    
Loop time of 2.63e-06 on 2 procs for 0 steps with 3 atoms

run 0 pre yes post no
PPPM initialization ...
  using 12-bit tables for long-range coulomb (src/kspace.cpp:342)
  G vector (1/distance) = 0.28934131
  grid = 18 18 18
  stencil order = 5
  estimated absolute RMS force accuracy = 7.7110449e-05
  estimated relative force accuracy = 5.3550243e-06
  using double precision KISS FFT
  3d grid and FFT values/proc = 10000 2916
Generated 0 of 21 mixed pair_coeff terms from geometric mixing rule
Per MPI rank memory allocation (min/avg/max) = 9.142 | 9.262 | 9.381 Mbytes
   Step          Temp          E_pair         E_mol          TotEng         Press     
        89   6799.3403      0.89499849     2.25186        4.9046259     -354.62322    
Loop time of 2.089e-06 on 2 procs for 0 steps with 3 atoms

run 1 pre yes post no update no
Per MPI rank memory allocation (min/avg/max) = 9.142 | 9.262 | 9.381 Mbytes
   Step          Temp          E_pair         E_mol          TotEng         Press     
        89   6855.0833      0.89499849     2.25186        4.9190366     -353.67488    
        90   7008.2567      0.99296757     1.7565166      4.5612607     -286.69873    
Loop time of 0.00288725 on 2 procs for 1 steps with 3 atoms

run 1 pre yes post no update no
Per MPI rank memory allocation (min/avg/max) = 9.142 | 9.262 | 9.381 Mbytes
   Step          Temp          E_pair         E_mol          TotEng         Press     
        90   7008.2567      0.99296757     1.7565166      4.5612607     -286.69873    
        91   7317.2535      1.1035274      1.3189529      4.3141388     -212.94078    
Loop time of 0.00306786 on 2 procs for 1 steps with 3 atoms

run 1 pre no post no update no
   Step          Temp          E_pair         E_mol          TotEng         Press     
        91   7317.2535      1.1035274      1.3189529      4.3141388     -212.94078    
        92   7832.1921      1.2241373      0.935024       4.1839418     -132.63679    
Loop time of 0.00295563 on 2 procs for 1 steps with 3 atoms

run 1 pre no post no update no
   Step          Temp          E_pair         E_mol          TotEng         Press     
        92   7832.1921      1.2241373      0.935024       4.1839418     -132.63679    
        93   8414.7425      1.3532345      0.6064597      4.1350758     -48.973337    
Loop time of 0.00295373 on 2 procs for 1 steps with 3 atoms

run 1 pre no post no update no
   Step          Temp          E_pair         E_mol          TotEng         Press     
        93   8414.7425      1.3532345      0.6064597      4.1350758     -48.973337    
        94   8868.8866      1.4878471      0.34173705     4.1223713      33.041584    
Loop time of 0.0029042 on 2 procs for 1 steps with 3 atoms

run 1 pre no post no update no
   Step          Temp          E_pair         E_mol          TotEng         Press     
        94   8868.8866      1.4878471      0.34173705     4.1223713      33.041584    
        95   9075.7843      1.6240905      0.14985522     4.1202201      109.25126    
Loop time of 0.00287082 on 2 procs for 1 steps with 3 atoms

run 1 pre no post no update no
   Step          Temp          E_pair         E_mol          TotEng         Press     
        95   9075.7843      1.6240905      0.14985522     4.1202201      109.25126    
        96   8997.5522      1.7582064      0.035968243    4.1202245      177.01632    
Loop time of 0.00296522 on 2 procs for 1 steps with 3 atoms

run 1 pre no post no update no
   Step          Temp          E_pair         E_mol          TotEng         Press     
        96   8997.5522      1.7582064      0.035968243    4.1202245      177.01632    
        97   8640.1259      1.8870549      1.9248851e-05  4.120722       234.86123    
Loop time of 0.0029367 on 2 procs for 1 steps with 3 atoms

run 1 pre no post no update no
   Step          Temp          E_pair         E_mol          TotEng         Press     
        97   8640.1259      1.8870549      1.9248851e-05  4.120722       234.86123    
        98   8032.5668      2.0081749      0.036736084    4.1214925      282.17839    
Loop time of 0.0028822 on 2 procs for 1 steps with 3 atoms

run 1 pre no post no update no
   Step          Temp          E_pair         E_mol          TotEng         Press     
        98   8032.5668      2.0081749      0.036736084    4.1214925      282.17839    
        99   7220.4691      2.1197055      0.13613214     4.1224754      319.09046    
Loop time of 0.00298166 on 2 procs for 1 steps with 3 atoms

run 1 pre no post no update no
   Step          Temp          E_pair         E_mol          TotEng         Press     
        99   7220.4691      2.1197055      0.13613214     4.1224754      319.09046    
       100   6262.5843      2.2202942      0.28431494     4.1236143      346.33655    
Loop time of 0.00296558 on 2 procs for 1 steps with 3 atoms

run 1 pre yes post no update no
Per MPI rank memory allocation (min/avg/max) = 9.142 | 9.262 | 9.381 Mbytes
   Step          Temp          E_pair         E_mol          TotEng         Press     
       100   6262.5843      2.2202942      0.28431494     4.1236143      346.33655    
       101   5227.0917      2.3089817      0.46454403     4.124835       365.13456    
Loop time of 0.00295593 on 2 procs for 1 steps with 3 atoms

run 1 pre no post no update no
   Step          Temp          E_pair         E_mol          TotEng         Press     
       101   5227.0917      2.3089817      0.46454403     4.124835       365.13456    
       102   4187.1471      2.3851169      0.65847725     4.1260567      377.02224    
Loop time of 0.0030577 on 2 procs for 1 steps with 3 atoms

run 1 pre no post no update no
   Step          Temp          E_pair         E_mol          TotEng         Press     
       102   4187.1471      2.3851169      0.65847725     4.1260567      377.02224    
       103   3215.9488      2.4482792      0.84752819     4.1271954      383.68544    
Loop time of 0.00284634 on 2 procs for 1 steps with 3 atoms

run 1 pre no post no update no
   Step          Temp          E_pair         E_mol          TotEng         Press     
       103   3215.9488      2.4482792      0.84752819     4.1271954      383.68544    
       104   2381.6623      2.4982184      1.0142446      4.128171       386.78538    
Loop time of 0.0030674 on 2 procs for 1 steps with 3 atoms

run 1 pre no post no update no
   Step          Temp          E_pair         E_mol          TotEng         Press     
       104   2381.6623      2.4982184      1.0142446      4.128171       386.78538    
       105   1742.5871      2.5348076      1.1436099      4.1289116      387.79639    
Loop time of 0.00298053 on 2 procs for 1 steps with 3 atoms

run 1 pre no post no update no
   Step          Temp          E_pair         E_mol          TotEng         Press     
       105   1742.5871      2.5348076      1.1436099      4.1289116      387.79639    
       106   1342.9492      2.5580153      1.2241697      4.1293647      387.8662     
Loop time of 0.0014767 on 2 procs for 1 steps with 3 atoms

run 1 pre no post no update no
   Step          Temp          E_pair         E_mol          TotEng         Press     
       106   1342.9492      2.5580153      1.2241697      4.1293647      387.8662     
       107   1209.6701      2.5678785      1.2488936      4.1294964      387.70905    
Loop time of 0.00145267 on 2 procs for 1 steps with 3 atoms

run 1 pre no post no update no
   Step          Temp          E_pair         E_mol          TotEng         Press     
       107   1209.6701      2.5678785      1.2488936      4.1294964      387.70905    
       108   1350.3966      2.564493       1.2156994      4.1292973      387.54065    
Loop time of 0.00143613 on 2 procs for 1 steps with 3 atoms

run 1 pre no post no update no
   Step          Temp          E_pair         E_mol          TotEng         Press     
       108   1350.3966      2.564493       1.2156994      4.1292973      387.54065    
       109   1752.9642      2.5480116      1.1275964      4.1287848      387.05996    
Loop time of 0.00144545 on 2 procs for 1 steps with 3 atoms

run 1 pre no post no update no
   Step          Temp          E_pair         E_mol          TotEng         Press     
       109   1752.9642      2.5480116      1.1275964      4.1287848      387.05996    
       110   2386.3425      2.5186452      0.99243456     4.1279977      385.47911    
Loop time of 0.00142706 on 2 procs for 1 steps with 3 atoms

run 1 pre yes post no update no
Per MPI rank memory allocation (min/avg/max) = 9.142 | 9.262 | 9.381 Mbytes
   Step          Temp          E_pair         E_mol          TotEng         Press     
       110   2386.3425      2.5186452      0.99243456     4.1279977      385.47911    
       111   3202.9732      2.4766769      0.82228459     4.126995       381.59884    
Loop time of 0.00279179 on 2 procs for 1 steps with 3 atoms

run 1 pre no post no update no
   Step          Temp          E_pair         E_mol          TotEng         Press     
       111   3202.9732      2.4766769      0.82228459     4.126995       381.59884    
       112   4142.2922      2.422482       0.63250243     4.125851       373.92262    
Loop time of 0.00298722 on 2 procs for 1 steps with 3 atoms

run 1 pre no post no update no
   Step          Temp          E_pair         E_mol          TotEng         Press     
       112   4142.2922      2.422482       0.63250243     4.125851       373.92262    
       113   5135.1366      2.3565532      0.44055698     4.1246472      360.80006    
Loop time of 0.00330509 on 2 procs for 1 steps with 3 atoms

run 1 pre no post no update no
   Step          Temp          E_pair         E_mol          TotEng         Press     
       113   5135.1366      2.3565532      0.44055698     4.1246472      360.80006    
       114   6108.6842      2.2795375      0.26471283     4.1234691      340.58819    
Loop time of 0.00302945 on 2 procs for 1 steps with 3 atoms

run 1 pre no post no update no
   Step          Temp          E_pair         E_mol          TotEng         Press     
       114   6108.6842      2.2795375      0.26471283     4.1234691      340.58819    
       115   6991.5528      2.1922717      0.1226656      4.1223956      311.81827    
Loop time of 0.00282292 on 2 procs for 1 steps with 3 atoms

run 1 pre no post no update no
   Step          Temp          E_pair         E_mol          TotEng         Press     
       115   6991.5528      2.1922717      0.1226656      4.1223956      311.81827    
       116   7718.7002      2.0958329      0.03022504     4.1214985      273.35641    
Loop time of 0.00300364 on 2 procs for 1 steps with 3 atoms

run 1 pre no post no update no
   Step          Temp          E_pair         E_mol          TotEng         Press     
       116   7718.7002      2.0958329      0.03022504     4.1214985      273.35641    
       117   8235.8027      1.9915807      0.00013329449  4.1208361      224.54581    
Loop time of 0.00288687 on 2 procs for 1 steps with 3 atoms

run 1 pre no post no update no
   Step          Temp          E_pair         E_mol          TotEng         Press     
       117   8235.8027      1.9915807      0.00013329449  4.1208361      224.54581    
       118   8502.8564      1.8811987      0.04109337     4.120453       165.32089    
Loop time of 0.00294474 on 2 procs for 1 steps with 3 atoms

run 1 pre no post no update no
   Step          Temp          E_pair         E_mol          TotEng         Press     
       118   8502.8564      1.8811987      0.04109337     4.120453       165.32089    
       119   8496.9588      1.7667246      0.15706734     4.1204282      96.286387    
Loop time of 0.00296982 on 2 procs for 1 steps with 3 atoms

run 1 pre no post no update no
   Step          Temp          E_pair         E_mol          TotEng         Press     
       119   8496.9588      1.7667246      0.15706734     4.1204282      96.286387    
       120   8215.196       1.6505429      0.34689063     4.1212284      18.769391    
Loop time of 0.00287044 on 2 procs for 1 steps with 3 atoms

run 1 pre yes post no update no
Per MPI rank memory allocation (min/avg/max) = 9.142 | 9.262 | 9.381 Mbytes
   Step          Temp          E_pair         E_mol          TotEng         Press     
       120   8215.196       1.6505429      0.34689063     4.1212284      18.769391    
       121   7681.2422      1.5353266      0.60427601     4.1253595     -65.110568    
Loop time of 0.00291657 on 2 procs for 1 steps with 3 atoms

run 1 pre no post no update no
   Step          Temp          E_pair         E_mol          TotEng         Press     
       121   7681.2422      1.5353266      0.60427601     4.1253595     -65.110568    
       122   6959.4538      1.4238028      0.91848772     4.1414505     -152.34165    
Loop time of 0.00281532 on 2 procs for 1 steps with 3 atoms

run 1 pre no post no update no
   Step          Temp          E_pair         E_mol          TotEng         Press     
       122   6959.4538      1.4238028      0.91848772     4.1414505     -152.34165    
       123   6165.3528      1.3182348      1.2763954      4.1884991     -239.16383    
Loop time of 0.00284696 on 2 procs for 1 steps with 3 atoms

run 1 pre no post no update no
   Step          Temp          E_pair         E_mol          TotEng         Press     
       123   6165.3528      1.3182348      1.2763954      4.1884991     -239.16383    
       124   5442.4068      1.2196515      1.6663898      4.2930139     -321.94126    
Loop time of 0.00294592 on 2 procs for 1 steps with 3 atoms

run 1 pre no post no update no
   Step          Temp          E_pair         E_mol          TotEng         Press     
       124   5442.4068      1.2196515      1.6663898      4.2930139     -321.94126    
       125   4898.6756      1.1275404      2.0825283      4.4764758     -398.5164     
Loop time of 0.00297089 on 2 procs for 1 steps with 3 atoms

run 1 pre no post no update no
   Step          Temp          E_pair         E_mol          TotEng         Press     
       125   4898.6756      1.1275404      2.0825283      4.4764758     -398.5164     
       126   4559.6017      1.0407156      2.5251316      4.7445968     -468.63432    
Loop time of 0.00288781 on 2 procs for 1 steps with 3 atoms

run 1 pre no post no update no
   Step          Temp          E_pair         E_mol          TotEng         Press     
       126   4559.6017      1.0407156      2.5251316      4.7445968     -468.63432    
       127   4405.9305      0.95895468     2.9972354      5.0952125     -532.48381    
Loop time of 0.00302952 on 2 procs for 1 steps with 3 atoms

run 0 pre yes post no
PPPM initialization ...
  using 12-bit tables for long-range coulomb (src/kspace.cpp:342)
  G vector (1/distance) = 0.28934131
  grid = 18 18 18
  stencil order = 5
  estimated absolute RMS force accuracy = 7.7110449e-05
  estimated relative force accuracy = 5.3550243e-06
  using double precision KISS FFT
  3d grid and FFT values/proc = 10000 2916
Generated 0 of 21 mixed pair_coeff terms from geometric mixing rule
Per MPI rank memory allocation (min/avg/max) = 9.142 | 9.262 | 9.381 Mbytes
   Step          Temp          E_pair         E_mol          TotEng         Press     
       127   4405.9305      0.95895468     2.9972354      5.0952125     -532.48381    
Loop time of 1.7385e-06 on 2 procs for 0 steps with 3 atoms

run 0 pre yes post no
PPPM initialization ...
  using 12-bit tables for long-range coulomb (src/kspace.cpp:342)
  G vector (1/distance) = 0.28934131
  grid = 18 18 18
  stencil order = 5
  estimated absolute RMS force accuracy = 7.7110449e-05
  estimated relative force accuracy = 5.3550243e-06
  using double precision KISS FFT
  3d grid and FFT values/proc = 10000 2916
Generated 0 of 21 mixed pair_coeff terms from geometric mixing rule
Per MPI rank memory allocation (min/avg/max) = 9.142 | 9.262 | 9.381 Mbytes
   Step          Temp          E_pair         E_mol          TotEng         Press     
       127   4405.9305      0.95895468     2.9972354      5.0952125     -532.48381    
Loop time of 1.848e-06 on 2 procs for 0 steps with 3 atoms

clear
OMP_NUM_THREADS environment is not set. Defaulting to 1 thread. (src/comm.cpp:98)
  using 1 OpenMP thread(s) per MPI task
units metal
atom_style full
boundary p p p
read_data /tmp/mustard.13e25e9621594b2cbe116fd2c800b3e6
Reading data file ...
  triclinic box = (0 0 0) to (25.319 25.319 25.319) with tilt (0 0 0)
  1 by 1 by 2 MPI processor grid
  reading atoms ...
  3 atoms
  reading velocities ...
  3 velocities
  scanning bonds ...
  1 = max bonds/atom
  reading bonds ...
  1 bonds
Finding 1-2 1-3 1-4 neighbors ...
  special bond factors lj:    0        0        0       
  special bond factors coul:  0        0        0       
     1 = max # of 1-2 neighbors
     0 = max # of 1-3 neighbors
     0 = max # of 1-4 neighbors
     1 = max # of special neighbors
  special bonds CPU = 0.000 seconds
  read_data CPU = 0.002 seconds

change_box all triclinic
Changing box ...
  triclinic box = (0 0 0) to (25.319 25.319 25.319) with tilt (0 0 0)
include ff.lmp
##############################################################################################
#### Atoms' types - mass - charge
##############################################################################################
#@ 7   atom types

variable Ba  equal 1
variable Zr  equal 2
variable  Y  equal 3
variable O1  equal 4
variable O2  equal 5
variable O3  equal 6
variable H1  equal 7

##############################################################################################
#### Atoms' masses
##############################################################################################

mass  ${Ba}   137.327
mass  1   137.327
mass  ${Zr}    91.224
mass  2    91.224
mass  ${Y}     88.910
mass  3     88.910
mass  ${O1}    100000
mass  4    100000
# mass  ${O1}    15.996
mass  ${O2}    100000
mass  5    100000
# mass  ${O2}    15.996
mass  ${O3}    15.996
mass  6    15.996
mass  ${H1}     1.008
mass  7     1.008

##############################################################################################
#### Atoms' charges
##############################################################################################

set type ${Ba}  charge     2.000000
set type 1  charge     2.000000
Setting atom values ...
  0 settings made for charge
set type ${Zr}  charge     4.000000
set type 2  charge     4.000000
Setting atom values ...
  0 settings made for charge
set type ${Y}   charge     3.000000
set type 3   charge     3.000000
Setting atom values ...
  0 settings made for charge
set type ${O1}  charge    -1.308698
set type 4  charge    -1.308698
Setting atom values ...
  1 settings made for charge
set type ${O2}  charge    -2.000000
set type 5  charge    -2.000000
Setting atom values ...
  1 settings made for charge
set type ${O3}  charge    -2.000000
set type 6  charge    -2.000000
Setting atom values ...
  0 settings made for charge
set type ${H1}  charge     0.308698
set type 7  charge     0.308698
Setting atom values ...
  1 settings made for charge

##############################################################################################
#### Covalent bonds parameters
##############################################################################################
#@  1   bond types

bond_style harmonic
#@ O1 - H1
# bond_coeff   1      11.504000      0.985357
bond_coeff   1      23.008000      0.985357

##############################################################################################
# Pair potentials
##############################################################################################

variable rmin  equal  8.
variable rmax  equal 10.

pair_style hybrid/overlay buck/mdf ${rmin} ${rmax} lennard/mdf ${rmin} ${rmax} coul/long ${rmax}
pair_style hybrid/overlay buck/mdf 8 ${rmax} lennard/mdf ${rmin} ${rmax} coul/long ${rmax}
pair_style hybrid/overlay buck/mdf 8 10 lennard/mdf ${rmin} ${rmax} coul/long ${rmax}
pair_style hybrid/overlay buck/mdf 8 10 lennard/mdf 8 ${rmax} coul/long ${rmax}
pair_style hybrid/overlay buck/mdf 8 10 lennard/mdf 8 10 coul/long ${rmax}
pair_style hybrid/overlay buck/mdf 8 10 lennard/mdf 8 10 coul/long 10

##############################################################################################
# Buckingham interaction potentials
pair_coeff  ${Ba}  ${O1}  buck/mdf   688.21662   0.392014   0.000
pair_coeff  1  ${O1}  buck/mdf   688.21662   0.392014   0.000
pair_coeff  1  4  buck/mdf   688.21662   0.392014   0.000
pair_coeff  ${Ba}  ${O2}  buck/mdf   972.19945   0.392014   0.000
pair_coeff  1  ${O2}  buck/mdf   972.19945   0.392014   0.000
pair_coeff  1  5  buck/mdf   972.19945   0.392014   0.000
pair_coeff  ${Ba}  ${O3}  buck/mdf   972.19945   0.392014   0.000
pair_coeff  1  ${O3}  buck/mdf   972.19945   0.392014   0.000
pair_coeff  1  6  buck/mdf   972.19945   0.392014   0.000

pair_coeff  ${Y}   ${O1}  buck/mdf   2972.3808   0.267317   0.000
pair_coeff  3   ${O1}  buck/mdf   2972.3808   0.267317   0.000
pair_coeff  3   4  buck/mdf   2972.3808   0.267317   0.000
pair_coeff  ${Y}   ${O2}  buck/mdf   4121.8373   0.280386   0.000
pair_coeff  3   ${O2}  buck/mdf   4121.8373   0.280386   0.000
pair_coeff  3   5  buck/mdf   4121.8373   0.280386   0.000
pair_coeff  ${Y}   ${O3}  buck/mdf   4121.8373   0.280386   0.000
pair_coeff  3   ${O3}  buck/mdf   4121.8373   0.280386   0.000
pair_coeff  3   6  buck/mdf   4121.8373   0.280386   0.000

pair_coeff  ${Zr}  ${O1}  buck/mdf   2195.8712   0.298760   0.000
pair_coeff  2  ${O1}  buck/mdf   2195.8712   0.298760   0.000
pair_coeff  2  4  buck/mdf   2195.8712   0.298760   0.000
pair_coeff  ${Zr}  ${O2}  buck/mdf   3250.8545   0.298760   0.000
pair_coeff  2  ${O2}  buck/mdf   3250.8545   0.298760   0.000
pair_coeff  2  5  buck/mdf   3250.8545   0.298760   0.000
pair_coeff  ${Zr}  ${O3}  buck/mdf   3250.8545   0.298760   0.000
pair_coeff  2  ${O3}  buck/mdf   3250.8545   0.298760   0.000
pair_coeff  2  6  buck/mdf   3250.8545   0.298760   0.000

pair_coeff  ${O1}  ${O1}  buck/mdf   22764.000   0.149000   0.000
pair_coeff  4  ${O1}  buck/mdf   22764.000   0.149000   0.000
pair_coeff  4  4  buck/mdf   22764.000   0.149000   0.000
pair_coeff  ${O1}  ${O2}  buck/mdf   22764.000   0.149000   0.000
pair_coeff  4  ${O2}  buck/mdf   22764.000   0.149000   0.000
pair_coeff  4  5  buck/mdf   22764.000   0.149000   0.000
pair_coeff  ${O1}  ${O3}  buck/mdf   22764.000   0.149000   0.000
pair_coeff  4  ${O3}  buck/mdf   22764.000   0.149000   0.000
pair_coeff  4  6  buck/mdf   22764.000   0.149000   0.000

pair_coeff  ${O2}  ${O2}  buck/mdf   22764.000   0.149000   0.000
pair_coeff  5  ${O2}  buck/mdf   22764.000   0.149000   0.000
pair_coeff  5  5  buck/mdf   22764.000   0.149000   0.000
pair_coeff  ${O2}  ${O3}  buck/mdf   22764.000   0.149000   0.000
pair_coeff  5  ${O3}  buck/mdf   22764.000   0.149000   0.000
pair_coeff  5  6  buck/mdf   22764.000   0.149000   0.000

pair_coeff  ${O3}  ${O3}  buck/mdf   22764.000   0.149000   0.000
pair_coeff  6  ${O3}  buck/mdf   22764.000   0.149000   0.000
pair_coeff  6  6  buck/mdf   22764.000   0.149000   0.000

##############################################################################################
# 12-6 Lennard-Jones potentials
pair_coeff  ${O1}  ${H1}  lennard/mdf    6.391   0.000
pair_coeff  4  ${H1}  lennard/mdf    6.391   0.000
pair_coeff  4  7  lennard/mdf    6.391   0.000
pair_coeff  ${O2}  ${H1}  lennard/mdf    6.391   0.000
pair_coeff  5  ${H1}  lennard/mdf    6.391   0.000
pair_coeff  5  7  lennard/mdf    6.391   0.000
pair_coeff  ${O3}  ${H1}  lennard/mdf    7.800   0.000
pair_coeff  6  ${H1}  lennard/mdf    7.800   0.000
pair_coeff  6  7  lennard/mdf    7.800   0.000

##############################################################################################
# Coulombic interaction
pair_coeff      *      *  coul/long

#########################################################################################################
# Parameters for reciprocal space electrostatics
#########################################################################################################

kspace_style pppm 1.0e-5
kspace_modify fftbench no
fix md all nve
timestep 0.0002

change_box all x final 0.0 25.319 y final 0.0 25.319 z final 0.0 25.319 xy final 0.0 xz final 0.0 yz final 0.0
Changing box ...
  triclinic box = (0 0 0) to (25.319 25.319 25.319) with tilt (0 0 0)
  triclinic box = (0 0 0) to (25.319 25.319 25.319) with tilt (0 0 0)
  triclinic box = (0 0 0) to (25.319 25.319 25.319) with tilt (0 0 0)
  triclinic box = (0 0 0) to (25.319 25.319 25.319) with tilt (0 0 0)
  triclinic box = (0 0 0) to (25.319 25.319 25.319) with tilt (0 0 0)
  triclinic box = (0 0 0) to (25.319 25.319 25.319) with tilt (0 0 0)
reset_timestep 127
fix ux all store/state 1 xu yu zu
fix ext all external pf/callback 1 1
fix_modify ext energy no
fix_modify ext virial no
compute get_pe all pe

run 0 pre yes post no
PPPM initialization ...
WARNING: System is not charge neutral, net charge = -3 (src/kspace.cpp:327)
  using 12-bit tables for long-range coulomb (src/kspace.cpp:342)
  G vector (1/distance) = 0.28934131
  grid = 18 18 18
  stencil order = 5
  estimated absolute RMS force accuracy = 7.7110449e-05
  estimated relative force accuracy = 5.3550243e-06
  using double precision KISS FFT
  3d grid and FFT values/proc = 10000 2916
Generated 0 of 21 mixed pair_coeff terms from geometric mixing rule
Neighbor list info ...
  update: every = 1 steps, delay = 0 steps, check = yes
  max neighbors/atom: 2000, page size: 100000
  master list distance cutoff = 12
  ghost atom cutoff = 12
  binsize = 6, bins = 5 5 5
  3 neighbor lists, perpetual/occasional/extra = 3 0 0
  (1) pair buck/mdf, perpetual, skip from (3)
      attributes: half, newton on
      pair build: skip
      stencil: none
      bin: none
  (2) pair lennard/mdf, perpetual, skip from (3)
      attributes: half, newton on
      pair build: skip
      stencil: none
      bin: none
  (3) pair coul/long, perpetual
      attributes: half, newton on
      pair build: half/bin/newton/tri
      stencil: half/bin/3d/tri
      bin: standard
Per MPI rank memory allocation (min/avg/max) = 9.142 | 9.262 | 9.381 Mbytes
   Step          Temp          E_pair         E_mol          TotEng         Press     
       127   4443.834       1.0368005      2.6045959      4.7902176     -482.99821    
Loop time of 1.9285e-06 on 2 procs for 0 steps with 3 atoms

run 0 pre yes post no
PPPM initialization ...
  using 12-bit tables for long-range coulomb (src/kspace.cpp:342)
  G vector (1/distance) = 0.28934131
  grid = 18 18 18
  stencil order = 5
  estimated absolute RMS force accuracy = 7.7110449e-05
  estimated relative force accuracy = 5.3550243e-06
  using double precision KISS FFT
  3d grid and FFT values/proc = 10000 2916
Generated 0 of 21 mixed pair_coeff terms from geometric mixing rule
Per MPI rank memory allocation (min/avg/max) = 9.142 | 9.262 | 9.381 Mbytes
   Step          Temp          E_pair         E_mol          TotEng         Press     
       127   4443.834       1.0368005      2.6045959      4.7902176     -482.99821    
Loop time of 1.5675e-06 on 2 procs for 0 steps with 3 atoms

run 1 pre yes post no update no
Per MPI rank memory allocation (min/avg/max) = 9.142 | 9.262 | 9.381 Mbytes
   Step          Temp          E_pair         E_mol          TotEng         Press     
       127   4405.9305      1.0368005      2.6045959      4.7804188     -483.64305    
       128   4455.4218      1.1363726      2.2137612      4.5019507     -429.47082    
Loop time of 0.00302833 on 2 procs for 1 steps with 3 atoms

run 1 pre no post no update no
   Step          Temp          E_pair         E_mol          TotEng         Press     
       128   4455.4218      1.1363726      2.2137612      4.5019507     -429.47082    
       129   4757.0128      1.2410648      1.8383184      4.3091676     -366.48377    
Loop time of 0.00366603 on 2 procs for 1 steps with 3 atoms

run 1 pre no post no update no
   Step          Temp          E_pair         E_mol          TotEng         Press     
       129   4757.0128      1.2410648      1.8383184      4.3091676     -366.48377    
       130   5304.2224      1.351436       1.4749222      4.1976073     -294.55531    
Loop time of 0.00316536 on 2 procs for 1 steps with 3 atoms

run 1 pre yes post no update no
Per MPI rank memory allocation (min/avg/max) = 9.142 | 9.262 | 9.381 Mbytes
   Step          Temp          E_pair         E_mol          TotEng         Press     
       130   5304.2224      1.351436       1.4749222      4.1976073     -294.55531    
       131   5999.9899      1.4677466      1.1271535      4.1460192     -215.52301    
Loop time of 0.00307137 on 2 procs for 1 steps with 3 atoms

run 1 pre no post no update no
   Step          Temp          E_pair         E_mol          TotEng         Press     
       131   5999.9899      1.4677466      1.1271535      4.1460192     -215.52301    
       132   6704.0646      1.5889411      0.80553823     4.1276161     -132.86021    
Loop time of 0.00307201 on 2 procs for 1 steps with 3 atoms

run 1 pre no post no update no
   Step          Temp          E_pair         E_mol          TotEng         Press     
       132   6704.0646      1.5889411      0.80553823     4.1276161     -132.86021    
       133   7294.9115      1.7129084      0.52377204     4.1225631     -50.399179    
Loop time of 0.00303583 on 2 procs for 1 steps with 3 atoms

run 1 pre no post no update no
   Step          Temp          E_pair         E_mol          TotEng         Press     
       133   7294.9115      1.7129084      0.52377204     4.1225631     -50.399179    
       134   7695.4919      1.8371667      0.29474797     4.1213555      28.572022    
Loop time of 0.00303064 on 2 procs for 1 steps with 3 atoms

run 1 pre no post no update no
   Step          Temp          E_pair         E_mol          TotEng         Press     
       134   7695.4919      1.8371667      0.29474797     4.1213555      28.572022    
       135   7865.9355      1.9593627      0.12819244     4.121059       101.52202    
Loop time of 0.00295538 on 2 procs for 1 steps with 3 atoms

run 1 pre no post no update no
   Step          Temp          E_pair         E_mol          TotEng         Press     
       135   7865.9355      1.9593627      0.12819244     4.121059       101.52202    
       136   7790.4837      2.0774544      0.029649418    4.121102       166.60924    
Loop time of 0.00293783 on 2 procs for 1 steps with 3 atoms

run 1 pre no post no update no
   Step          Temp          E_pair         E_mol          TotEng         Press     
       136   7790.4837      2.0774544      0.029649418    4.121102       166.60924    
       137   7471.4838      2.1897476      0.00013345543  4.1214112      222.63673    
Loop time of 0.00288743 on 2 procs for 1 steps with 3 atoms

run 1 pre no post no update no
   Step          Temp          E_pair         E_mol          TotEng         Press     
       137   7471.4838      2.1897476      0.00013345543  4.1214112      222.63673    
       138   6927.6511      2.2948758      0.036150356    4.1219646      269.0369     
Loop time of 0.00300755 on 2 procs for 1 steps with 3 atoms

run 1 pre no post no update no
   Step          Temp          E_pair         E_mol          TotEng         Press     
       138   6927.6511      2.2948758      0.036150356    4.1219646      269.0369     
       139   6192.7265      2.3917619      0.13001802     4.1227253      305.83773    
Loop time of 0.00285652 on 2 procs for 1 steps with 3 atoms

run 1 pre no post no update no
   Step          Temp          E_pair         E_mol          TotEng         Press     
       139   6192.7265      2.3917619      0.13001802     4.1227253      305.83773    
       140   5313.3229      2.4795848      0.270461       4.1236476      333.59619    
Loop time of 0.00290951 on 2 procs for 1 steps with 3 atoms

run 1 pre yes post no update no
Per MPI rank memory allocation (min/avg/max) = 9.142 | 9.262 | 9.381 Mbytes
   Step          Temp          E_pair         E_mol          TotEng         Press     
       140   5313.3229      2.4795848      0.270461       4.1236476      333.59619    
       141   4345.884       2.5577275      0.44344055     4.1246673      353.29987    
Loop time of 0.00273718 on 2 procs for 1 steps with 3 atoms

run 1 pre no post no update no
   Step          Temp          E_pair         E_mol          TotEng         Press     
       141   4345.884       2.5577275      0.44344055     4.1246673      353.29987    
       142   3352.9388      2.6257502      0.63316522     4.1257182      366.24573    
Loop time of 0.00154206 on 2 procs for 1 steps with 3 atoms

run 1 pre no post no update no
   Step          Temp          E_pair         E_mol          TotEng         Press     
       142   3352.9388      2.6257502      0.63316522     4.1257182      366.24573    
       143   2398.9059      2.6833491      0.82321387     4.1267288      373.90297    
Loop time of 0.00150522 on 2 procs for 1 steps with 3 atoms

run 1 pre no post no update no
   Step          Temp          E_pair         E_mol          TotEng         Press     
       143   2398.9059      2.6833491      0.82321387     4.1267288      373.90297    
       144   1545.7427      2.7303305      0.99769413     4.1276305      377.77092    
Loop time of 0.00146171 on 2 procs for 1 steps with 3 atoms

run 1 pre no post no update no
   Step          Temp          E_pair         E_mol          TotEng         Press     
       144   1545.7427      2.7303305      0.99769413     4.1276305      377.77092    
       145   848.74453      2.7665882      1.1423567      4.1283626      379.24149    
Loop time of 0.00139581 on 2 procs for 1 steps with 3 atoms

run 1 pre no post no update no
   Step          Temp          E_pair         E_mol          TotEng         Press     
       145   848.74453      2.7665882      1.1423567      4.1283626      379.24149    
       146   352.79086      2.7920832      1.2455884      4.1288752      379.47603    
Loop time of 0.00140941 on 2 procs for 1 steps with 3 atoms

run 1 pre no post no update no
   Step          Temp          E_pair         E_mol          TotEng         Press     
       146   352.79086      2.7920832      1.2455884      4.1288752      379.47603    
       147   89.302491      2.8068311      1.2992156      4.1291332      379.30525    
Loop time of 0.00150685 on 2 procs for 1 steps with 3 atoms

run 1 pre no post no update no
   Step          Temp          E_pair         E_mol          TotEng         Press     
       147   89.302491      2.8068311      1.2992156      4.1291332      379.30525    
       148   74.121731      2.8108947      1.2990634      4.1291201      379.15958    
Loop time of 0.001563 on 2 procs for 1 steps with 3 atoms

run 1 pre no post no update no
   Step          Temp          E_pair         E_mol          TotEng         Press     
       148   74.121731      2.8108947      1.2990634      4.1291201      379.15958    
       149   306.46104      2.8043794      1.2452323      4.1288381      379.03406    
Loop time of 0.0014279 on 2 procs for 1 steps with 3 atoms

run 1 pre no post no update no
   Step          Temp          E_pair         E_mol          TotEng         Press     
       149   306.46104      2.8043794      1.2452323      4.1288381      379.03406    
       150   768.98956      2.7874306      1.1420762      4.1283062      378.49072    
Loop time of 0.00151005 on 2 procs for 1 steps with 3 atoms

run 1 pre yes post no update no
Per MPI rank memory allocation (min/avg/max) = 9.142 | 9.262 | 9.381 Mbytes
   Step          Temp          E_pair         E_mol          TotEng         Press     
       150   768.98956      2.7874306      1.1420762      4.1283062      378.49072    
       151   1429.0473      2.7602419      0.99788222     4.1275619      376.69794    
Loop time of 0.0013955 on 2 procs for 1 steps with 3 atoms

run 1 pre no post no update no
   Step          Temp          E_pair         E_mol          TotEng         Press     
       151   1429.0473      2.7602419      0.99788222     4.1275619      376.69794    
       152   2240.8993      2.7230603      0.82427811     4.1266563      372.50358    
Loop time of 0.00155869 on 2 procs for 1 steps with 3 atoms

run 1 pre no post no update no
   Step          Temp          E_pair         E_mol          TotEng         Press     
       152   2240.8993      2.7230603      0.82427811     4.1266563      372.50358    
       153   3148.8729      2.6761972      0.63540608     4.1256508      364.53698    
Loop time of 0.00135164 on 2 procs for 1 steps with 3 atoms

run 1 pre no post no update no
   Step          Temp          E_pair         E_mol          TotEng         Press     
       153   3148.8729      2.6761972      0.63540608     4.1256508      364.53698    
       154   4091.1609      2.6200452      0.44692152     4.1246148      351.33215    
Loop time of 0.00142732 on 2 procs for 1 steps with 3 atoms

run 1 pre no post no update no
   Step          Temp          E_pair         E_mol          TotEng         Press     
       154   4091.1609      2.6200452      0.44692152     4.1246148      351.33215    
       155   5004.0295      2.5550913      0.27488408     4.1236185      331.46357    
Loop time of 0.00140761 on 2 procs for 1 steps with 3 atoms

run 1 pre no post no update no
   Step          Temp          E_pair         E_mol          TotEng         Press     
       155   5004.0295      2.5550913      0.27488408     4.1236185      331.46357    
       156   5826.1451      2.4819355      0.13461687     4.1227291      303.68472    
Loop time of 0.00142512 on 2 procs for 1 steps with 3 atoms

run 1 pre no post no update no
   Step          Temp          E_pair         E_mol          TotEng         Press     
       156   5826.1451      2.4819355      0.13461687     4.1227291      303.68472    
       157   6502.7244      2.4013081      0.039611474    4.1220057      267.05946    
Loop time of 0.0129952 on 2 procs for 1 steps with 3 atoms

run 1 pre no post no update no
   Step          Temp          E_pair         E_mol          TotEng         Press     
       157   6502.7244      2.4013081      0.039611474    4.1220057      267.05946    
       158   6989.2264      2.3140883      0.00055328367  4.1214984      221.07658    
Loop time of 0.00298804 on 2 procs for 1 steps with 3 atoms

run 1 pre no post no update no
   Step          Temp          E_pair         E_mol          TotEng         Press     
       158   6989.2264      2.3140883      0.00055328367  4.1214984      221.07658    
       159   7254.3386      2.2213122      0.024533547    4.1212395      165.73861    
Loop time of 0.00285246 on 2 procs for 1 steps with 3 atoms

run 1 pre no post no update no
   Step          Temp          E_pair         E_mol          TotEng         Press     
       159   7254.3386      2.2213122      0.024533547    4.1212395      165.73861    
       160   7282.0616      2.1241843      0.11450175     4.1212467      101.61847    
Loop time of 0.00324987 on 2 procs for 1 steps with 3 atoms

run 1 pre yes post no update no
Per MPI rank memory allocation (min/avg/max) = 9.142 | 9.262 | 9.381 Mbytes
   Step          Temp          E_pair         E_mol          TotEng         Press     
       160   7282.0616      2.1241843      0.11450175     4.1212467      101.61847    
       161   7072.7792      2.024074       0.26899571     4.1215266      29.878658    
Loop time of 0.00383394 on 2 procs for 1 steps with 3 atoms

run 1 pre no post no update no
   Step          Temp          E_pair         E_mol          TotEng         Press     
       161   7072.7792      2.024074       0.26899571     4.1215266      29.878658    
       162   6643.421       1.9225069      0.48216873     4.1221347     -47.746827    
Loop time of 0.00341681 on 2 procs for 1 steps with 3 atoms

run 1 pre no post no update no
   Step          Temp          E_pair         E_mol          TotEng         Press     
       162   6643.421       1.9225069      0.48216873     4.1221347     -47.746827    
       163   6027.4053      1.8211333      0.74412155     4.1234614     -128.99889    
Loop time of 0.00358344 on 2 procs for 1 steps with 3 atoms

run 1 pre no post no update no
   Step          Temp          E_pair         E_mol          TotEng         Press     
       163   6027.4053      1.8211333      0.74412155     4.1234614     -128.99889    
       164   5275.658       1.7216708      1.0415695      4.127105      -211.15434    
Loop time of 0.00338579 on 2 procs for 1 steps with 3 atoms

run 1 pre no post no update no
   Step          Temp          E_pair         E_mol          TotEng         Press     
       164   5275.658       1.7216708      1.0415695      4.127105      -211.15434    
       165   4458.2027      1.6257689      1.3589717      4.1372764     -291.13359    
Loop time of 0.00338324 on 2 procs for 1 steps with 3 atoms

run 1 pre no post no update no
   Step          Temp          E_pair         E_mol          TotEng         Press     
       165   4458.2027      1.6257689      1.3589717      4.1372764     -291.13359    
       166   3660.6226      1.5347678      1.680313       4.1614261     -365.77438    
Loop time of 0.00338892 on 2 procs for 1 steps with 3 atoms

run 1 pre no post no update no
   Step          Temp          E_pair         E_mol          TotEng         Press     
       166   3660.6226      1.5347678      1.680313       4.1614261     -365.77438    
       167   2969.4486      1.4493783      1.9914504      4.2084914     -432.3411     
Loop time of 0.00337059 on 2 procs for 1 steps with 3 atoms

run 1 pre no post no update no
   Step          Temp          E_pair         E_mol          TotEng         Press     
       167   2969.4486      1.4493783      1.9914504      4.2084914     -432.3411     
       168   2451.7488      1.3694718      2.2823386      4.2856372     -489.07007    
Loop time of 0.00294451 on 2 procs for 1 steps with 3 atoms

run 1 pre no post no update no
   Step          Temp          E_pair         E_mol          TotEng         Press     
       168   2451.7488      1.3694718      2.2823386      4.2856372     -489.07007    
       169   2142.6818      1.2941097      2.5482648      4.3963012     -535.4154     
Loop time of 0.00277565 on 2 procs for 1 steps with 3 atoms

run 1 pre no post no update no
   Step          Temp          E_pair         E_mol          TotEng         Press     
       169   2142.6818      1.2941097      2.5482648      4.3963012     -535.4154     
       170   2047.0173      1.2218245      2.7897455      4.5407655     -571.88486    
Loop time of 0.00287659 on 2 procs for 1 steps with 3 atoms

run 1 pre yes post no update no
Per MPI rank memory allocation (min/avg/max) = 9.142 | 9.262 | 9.381 Mbytes
   Step          Temp          E_pair         E_mol          TotEng         Press     
       170   2047.0173      1.2218245      2.7897455      4.5407655     -571.88486    
       171   2148.7382      1.1510612      3.0113968      4.7179504     -599.6314     
Loop time of 0.00278972 on 2 procs for 1 steps with 3 atoms

run 1 pre no post no update no
   Step          Temp          E_pair         E_mol          TotEng         Press     
       171   2148.7382      1.1510612      3.0113968      4.7179504     -599.6314     
       172   2421.2672      1.0806669      3.2204119      4.9270255     -620.01016    
Loop time of 0.00278396 on 2 procs for 1 steps with 3 atoms

run 1 pre no post no update no
   Step          Temp          E_pair         E_mol          TotEng         Press     
       172   2421.2672      1.0806669      3.2204119      4.9270255     -620.01016    
       173   2835.8887      1.0102845      3.425339       5.1687583     -634.21227    
Loop time of 0.00297092 on 2 procs for 1 steps with 3 atoms

run 0 pre yes post no
PPPM initialization ...
  using 12-bit tables for long-range coulomb (src/kspace.cpp:342)
  G vector (1/distance) = 0.28934131
  grid = 18 18 18
  stencil order = 5
  estimated absolute RMS force accuracy = 7.7110449e-05
  estimated relative force accuracy = 5.3550243e-06
  using double precision KISS FFT
  3d grid and FFT values/proc = 10000 2916
Generated 0 of 21 mixed pair_coeff terms from geometric mixing rule
Per MPI rank memory allocation (min/avg/max) = 9.142 | 9.262 | 9.381 Mbytes
   Step          Temp          E_pair         E_mol          TotEng         Press     
       173   2835.8887      1.0102845      3.425339       5.1687583     -634.21227    
Loop time of 2.029e-06 on 2 procs for 0 steps with 3 atoms

run 0 pre yes post no
PPPM initialization ...
  using 12-bit tables for long-range coulomb (src/kspace.cpp:342)
  G vector (1/distance) = 0.28934131
  grid = 18 18 18
  stencil order = 5
  estimated absolute RMS force accuracy = 7.7110449e-05
  estimated relative force accuracy = 5.3550243e-06
  using double precision KISS FFT
  3d grid and FFT values/proc = 10000 2916
Generated 0 of 21 mixed pair_coeff terms from geometric mixing rule
Per MPI rank memory allocation (min/avg/max) = 9.142 | 9.262 | 9.381 Mbytes
   Step          Temp          E_pair         E_mol          TotEng         Press     
       173   2835.8887      1.0102845      3.425339       5.1687583     -634.21227    
Loop time of 1.954e-06 on 2 procs for 0 steps with 3 atoms

clear
OMP_NUM_THREADS environment is not set. Defaulting to 1 thread. (src/comm.cpp:98)
  using 1 OpenMP thread(s) per MPI task
units metal
atom_style full
boundary p p p
read_data /tmp/mustard.13e25e9621594b2cbe116fd2c800b3e6
Reading data file ...
  triclinic box = (0 0 0) to (25.319 25.319 25.319) with tilt (0 0 0)
  1 by 1 by 2 MPI processor grid
  reading atoms ...
  3 atoms
  reading velocities ...
  3 velocities
  scanning bonds ...
  1 = max bonds/atom
  reading bonds ...
  1 bonds
Finding 1-2 1-3 1-4 neighbors ...
  special bond factors lj:    0        0        0       
  special bond factors coul:  0        0        0       
     1 = max # of 1-2 neighbors
     0 = max # of 1-3 neighbors
     0 = max # of 1-4 neighbors
     1 = max # of special neighbors
  special bonds CPU = 0.000 seconds
  read_data CPU = 0.001 seconds

change_box all triclinic
Changing box ...
  triclinic box = (0 0 0) to (25.319 25.319 25.319) with tilt (0 0 0)
include ff.lmp
##############################################################################################
#### Atoms' types - mass - charge
##############################################################################################
#@ 7   atom types

variable Ba  equal 1
variable Zr  equal 2
variable  Y  equal 3
variable O1  equal 4
variable O2  equal 5
variable O3  equal 6
variable H1  equal 7

##############################################################################################
#### Atoms' masses
##############################################################################################

mass  ${Ba}   137.327
mass  1   137.327
mass  ${Zr}    91.224
mass  2    91.224
mass  ${Y}     88.910
mass  3     88.910
mass  ${O1}    100000
mass  4    100000
# mass  ${O1}    15.996
mass  ${O2}    100000
mass  5    100000
# mass  ${O2}    15.996
mass  ${O3}    15.996
mass  6    15.996
mass  ${H1}     1.008
mass  7     1.008

##############################################################################################
#### Atoms' charges
##############################################################################################

set type ${Ba}  charge     2.000000
set type 1  charge     2.000000
Setting atom values ...
  0 settings made for charge
set type ${Zr}  charge     4.000000
set type 2  charge     4.000000
Setting atom values ...
  0 settings made for charge
set type ${Y}   charge     3.000000
set type 3   charge     3.000000
Setting atom values ...
  0 settings made for charge
set type ${O1}  charge    -1.308698
set type 4  charge    -1.308698
Setting atom values ...
  1 settings made for charge
set type ${O2}  charge    -2.000000
set type 5  charge    -2.000000
Setting atom values ...
  1 settings made for charge
set type ${O3}  charge    -2.000000
set type 6  charge    -2.000000
Setting atom values ...
  0 settings made for charge
set type ${H1}  charge     0.308698
set type 7  charge     0.308698
Setting atom values ...
  1 settings made for charge

##############################################################################################
#### Covalent bonds parameters
##############################################################################################
#@  1   bond types

bond_style harmonic
#@ O1 - H1
# bond_coeff   1      11.504000      0.985357
bond_coeff   1      23.008000      0.985357

##############################################################################################
# Pair potentials
##############################################################################################

variable rmin  equal  8.
variable rmax  equal 10.

pair_style hybrid/overlay buck/mdf ${rmin} ${rmax} lennard/mdf ${rmin} ${rmax} coul/long ${rmax}
pair_style hybrid/overlay buck/mdf 8 ${rmax} lennard/mdf ${rmin} ${rmax} coul/long ${rmax}
pair_style hybrid/overlay buck/mdf 8 10 lennard/mdf ${rmin} ${rmax} coul/long ${rmax}
pair_style hybrid/overlay buck/mdf 8 10 lennard/mdf 8 ${rmax} coul/long ${rmax}
pair_style hybrid/overlay buck/mdf 8 10 lennard/mdf 8 10 coul/long ${rmax}
pair_style hybrid/overlay buck/mdf 8 10 lennard/mdf 8 10 coul/long 10

##############################################################################################
# Buckingham interaction potentials
pair_coeff  ${Ba}  ${O1}  buck/mdf   688.21662   0.392014   0.000
pair_coeff  1  ${O1}  buck/mdf   688.21662   0.392014   0.000
pair_coeff  1  4  buck/mdf   688.21662   0.392014   0.000
pair_coeff  ${Ba}  ${O2}  buck/mdf   972.19945   0.392014   0.000
pair_coeff  1  ${O2}  buck/mdf   972.19945   0.392014   0.000
pair_coeff  1  5  buck/mdf   972.19945   0.392014   0.000
pair_coeff  ${Ba}  ${O3}  buck/mdf   972.19945   0.392014   0.000
pair_coeff  1  ${O3}  buck/mdf   972.19945   0.392014   0.000
pair_coeff  1  6  buck/mdf   972.19945   0.392014   0.000

pair_coeff  ${Y}   ${O1}  buck/mdf   2972.3808   0.267317   0.000
pair_coeff  3   ${O1}  buck/mdf   2972.3808   0.267317   0.000
pair_coeff  3   4  buck/mdf   2972.3808   0.267317   0.000
pair_coeff  ${Y}   ${O2}  buck/mdf   4121.8373   0.280386   0.000
pair_coeff  3   ${O2}  buck/mdf   4121.8373   0.280386   0.000
pair_coeff  3   5  buck/mdf   4121.8373   0.280386   0.000
pair_coeff  ${Y}   ${O3}  buck/mdf   4121.8373   0.280386   0.000
pair_coeff  3   ${O3}  buck/mdf   4121.8373   0.280386   0.000
pair_coeff  3   6  buck/mdf   4121.8373   0.280386   0.000

pair_coeff  ${Zr}  ${O1}  buck/mdf   2195.8712   0.298760   0.000
pair_coeff  2  ${O1}  buck/mdf   2195.8712   0.298760   0.000
pair_coeff  2  4  buck/mdf   2195.8712   0.298760   0.000
pair_coeff  ${Zr}  ${O2}  buck/mdf   3250.8545   0.298760   0.000
pair_coeff  2  ${O2}  buck/mdf   3250.8545   0.298760   0.000
pair_coeff  2  5  buck/mdf   3250.8545   0.298760   0.000
pair_coeff  ${Zr}  ${O3}  buck/mdf   3250.8545   0.298760   0.000
pair_coeff  2  ${O3}  buck/mdf   3250.8545   0.298760   0.000
pair_coeff  2  6  buck/mdf   3250.8545   0.298760   0.000

pair_coeff  ${O1}  ${O1}  buck/mdf   22764.000   0.149000   0.000
pair_coeff  4  ${O1}  buck/mdf   22764.000   0.149000   0.000
pair_coeff  4  4  buck/mdf   22764.000   0.149000   0.000
pair_coeff  ${O1}  ${O2}  buck/mdf   22764.000   0.149000   0.000
pair_coeff  4  ${O2}  buck/mdf   22764.000   0.149000   0.000
pair_coeff  4  5  buck/mdf   22764.000   0.149000   0.000
pair_coeff  ${O1}  ${O3}  buck/mdf   22764.000   0.149000   0.000
pair_coeff  4  ${O3}  buck/mdf   22764.000   0.149000   0.000
pair_coeff  4  6  buck/mdf   22764.000   0.149000   0.000

pair_coeff  ${O2}  ${O2}  buck/mdf   22764.000   0.149000   0.000
pair_coeff  5  ${O2}  buck/mdf   22764.000   0.149000   0.000
pair_coeff  5  5  buck/mdf   22764.000   0.149000   0.000
pair_coeff  ${O2}  ${O3}  buck/mdf   22764.000   0.149000   0.000
pair_coeff  5  ${O3}  buck/mdf   22764.000   0.149000   0.000
pair_coeff  5  6  buck/mdf   22764.000   0.149000   0.000

pair_coeff  ${O3}  ${O3}  buck/mdf   22764.000   0.149000   0.000
pair_coeff  6  ${O3}  buck/mdf   22764.000   0.149000   0.000
pair_coeff  6  6  buck/mdf   22764.000   0.149000   0.000

##############################################################################################
# 12-6 Lennard-Jones potentials
pair_coeff  ${O1}  ${H1}  lennard/mdf    6.391   0.000
pair_coeff  4  ${H1}  lennard/mdf    6.391   0.000
pair_coeff  4  7  lennard/mdf    6.391   0.000
pair_coeff  ${O2}  ${H1}  lennard/mdf    6.391   0.000
pair_coeff  5  ${H1}  lennard/mdf    6.391   0.000
pair_coeff  5  7  lennard/mdf    6.391   0.000
pair_coeff  ${O3}  ${H1}  lennard/mdf    7.800   0.000
pair_coeff  6  ${H1}  lennard/mdf    7.800   0.000
pair_coeff  6  7  lennard/mdf    7.800   0.000

##############################################################################################
# Coulombic interaction
pair_coeff      *      *  coul/long

#########################################################################################################
# Parameters for reciprocal space electrostatics
#########################################################################################################

kspace_style pppm 1.0e-5
kspace_modify fftbench no
fix md all nve
timestep 0.0002

change_box all x final 0.0 25.319 y final 0.0 25.319 z final 0.0 25.319 xy final 0.0 xz final 0.0 yz final 0.0
Changing box ...
  triclinic box = (0 0 0) to (25.319 25.319 25.319) with tilt (0 0 0)
  triclinic box = (0 0 0) to (25.319 25.319 25.319) with tilt (0 0 0)
  triclinic box = (0 0 0) to (25.319 25.319 25.319) with tilt (0 0 0)
  triclinic box = (0 0 0) to (25.319 25.319 25.319) with tilt (0 0 0)
  triclinic box = (0 0 0) to (25.319 25.319 25.319) with tilt (0 0 0)
  triclinic box = (0 0 0) to (25.319 25.319 25.319) with tilt (0 0 0)
reset_timestep 173
fix ux all store/state 1 xu yu zu
fix ext all external pf/callback 1 1
fix_modify ext energy no
fix_modify ext virial no
compute get_pe all pe

run 0 pre yes post no
PPPM initialization ...
WARNING: System is not charge neutral, net charge = -3 (src/kspace.cpp:327)
  using 12-bit tables for long-range coulomb (src/kspace.cpp:342)
  G vector (1/distance) = 0.28934131
  grid = 18 18 18
  stencil order = 5
  estimated absolute RMS force accuracy = 7.7110449e-05
  estimated relative force accuracy = 5.3550243e-06
  using double precision KISS FFT
  3d grid and FFT values/proc = 10000 2916
Generated 0 of 21 mixed pair_coeff terms from geometric mixing rule
Neighbor list info ...
  update: every = 1 steps, delay = 0 steps, check = yes
  max neighbors/atom: 2000, page size: 100000
  master list distance cutoff = 12
  ghost atom cutoff = 12
  binsize = 6, bins = 5 5 5
  3 neighbor lists, perpetual/occasional/extra = 3 0 0
  (1) pair buck/mdf, perpetual, skip from (3)
      attributes: half, newton on
      pair build: skip
      stencil: none
      bin: none
  (2) pair lennard/mdf, perpetual, skip from (3)
      attributes: half, newton on
      pair build: skip
      stencil: none
      bin: none
  (3) pair coul/long, perpetual
      attributes: half, newton on
      pair build: half/bin/newton/tri
      stencil: half/bin/3d/tri
      bin: standard
Per MPI rank memory allocation (min/avg/max) = 9.142 | 9.262 | 9.381 Mbytes
   Step          Temp          E_pair         E_mol          TotEng         Press     
       173   2604.8758      1.1200706      2.8691836      4.6626674     -566.72267    
Loop time of 2.1935e-06 on 2 procs for 0 steps with 3 atoms

run 0 pre yes post no
PPPM initialization ...
  using 12-bit tables for long-range coulomb (src/kspace.cpp:342)
  G vector (1/distance) = 0.28934131
  grid = 18 18 18
  stencil order = 5
  estimated absolute RMS force accuracy = 7.7110449e-05
  estimated relative force accuracy = 5.3550243e-06
  using double precision KISS FFT
  3d grid and FFT values/proc = 10000 2916
Generated 0 of 21 mixed pair_coeff terms from geometric mixing rule
Per MPI rank memory allocation (min/avg/max) = 9.142 | 9.262 | 9.381 Mbytes
   Step          Temp          E_pair         E_mol          TotEng         Press     
       173   2604.8758      1.1200706      2.8691836      4.6626674     -566.72267    
Loop time of 1.718e-06 on 2 procs for 0 steps with 3 atoms

run 1 pre yes post no update no
Per MPI rank memory allocation (min/avg/max) = 9.142 | 9.262 | 9.381 Mbytes
   Step          Temp          E_pair         E_mol          TotEng         Press     
       173   2835.8887      1.1200706      2.8691836      4.722389      -562.79251    
       174   3368.3983      1.1607702      2.5168656      4.5484351     -500.86401    
Loop time of 0.00267801 on 2 procs for 1 steps with 3 atoms

run 1 pre no post no update no
   Step          Temp          E_pair         E_mol          TotEng         Press     
       174   3368.3983      1.1607702      2.5168656      4.5484351     -500.86401    
       175   4002.3479      1.2038246      2.1669155      4.4054282     -434.76773    
Loop time of 0.00273952 on 2 procs for 1 steps with 3 atoms

run 1 pre no post no update no
   Step          Temp          E_pair         E_mol          TotEng         Press     
       175   4002.3479      1.2038246      2.1669155      4.4054282     -434.76773    
       176   4725.7801      1.2511621      1.8207869      4.293659      -364.53332    
Loop time of 0.00270274 on 2 procs for 1 steps with 3 atoms

run 1 pre no post no update no
   Step          Temp          E_pair         E_mol          TotEng         Press     
       176   4725.7801      1.2511621      1.8207869      4.293659      -364.53332    
       177   5520.4978      1.3046026      1.4820537      4.213817      -290.41209    
Loop time of 0.00278207 on 2 procs for 1 steps with 3 atoms

run 1 pre no post no update no
   Step          Temp          E_pair         E_mol          TotEng         Press     
       177   5520.4978      1.3046026      1.4820537      4.213817      -290.41209    
       178   6349.0095      1.3654938      1.1570331      4.1638747     -213.25245    
Loop time of 0.00282985 on 2 procs for 1 steps with 3 atoms

run 1 pre no post no update no
   Step          Temp          E_pair         E_mol          TotEng         Press     
       178   6349.0095      1.3654938      1.1570331      4.1638747     -213.25245    
       179   7150.2027      1.4343035      0.85485089     4.1376268     -134.72519    
Loop time of 0.00283217 on 2 procs for 1 steps with 3 atoms

run 1 pre no post no update no
   Step          Temp          E_pair         E_mol          TotEng         Press     
       179   7150.2027      1.4343035      0.85485089     4.1376268     -134.72519    
       180   7851.1731      1.5104593      0.5862818      4.1264287     -57.14164     
Loop time of 0.00294961 on 2 procs for 1 steps with 3 atoms

run 1 pre yes post no update no
Per MPI rank memory allocation (min/avg/max) = 9.142 | 9.262 | 9.381 Mbytes
   Step          Temp          E_pair         E_mol          TotEng         Press     
       180   7851.1731      1.5104593      0.5862818      4.1264287     -57.14164     
       181   8388.0524      1.5925009      0.36167086     4.1226535      17.046388    
Loop time of 0.00303306 on 2 procs for 1 steps with 3 atoms

run 1 pre no post no update no
   Step          Temp          E_pair         E_mol          TotEng         Press     
       181   8388.0524      1.5925009      0.36167086     4.1226535      17.046388    
       182   8720.4447      1.6784182      0.18890593     4.1217361      85.714246    
Loop time of 0.00303712 on 2 procs for 1 steps with 3 atoms

run 1 pre no post no update no
   Step          Temp          E_pair         E_mol          TotEng         Press     
       182   8720.4447      1.6784182      0.18890593     4.1217361      85.714246    
       183   8833.5313      1.7659816      0.0721447      4.1217734      147.28649    
Loop time of 0.00309346 on 2 procs for 1 steps with 3 atoms

run 1 pre no post no update no
   Step          Temp          E_pair         E_mol          TotEng         Press     
       183   8833.5313      1.7659816      0.0721447      4.1217734      147.28649    
       184   8733.821       1.8529833      0.011344207    4.1221975      200.77335    
Loop time of 0.00288266 on 2 procs for 1 steps with 3 atoms

run 1 pre no post no update no
   Step          Temp          E_pair         E_mol          TotEng         Press     
       184   8733.821       1.8529833      0.011344207    4.1221975      200.77335    
       185   8444.7467      1.9373728      0.0023484929   4.1228597      245.74177    
Loop time of 0.00299828 on 2 procs for 1 steps with 3 atoms

run 1 pre no post no update no
   Step          Temp          E_pair         E_mol          TotEng         Press     
       185   8444.7467      1.9373728      0.0023484929   4.1228597      245.74177    
       186   8003.2562      2.0173396      0.037350214    4.1236939      282.26456    
Loop time of 0.00310682 on 2 procs for 1 steps with 3 atoms

run 1 pre no post no update no
   Step          Temp          E_pair         E_mol          TotEng         Press     
       186   8003.2562      2.0173396      0.037350214    4.1236939      282.26456    
       187   7456.4554      2.0913495      0.10563819     4.1246327      310.84338    
Loop time of 0.00301509 on 2 procs for 1 steps with 3 atoms

run 1 pre no post no update no
   Step          Temp          E_pair         E_mol          TotEng         Press     
       187   7456.4554      2.0913495      0.10563819     4.1246327      310.84338    
       188   6857.7518      2.1581651      0.19457071     4.1256038      332.30397    
Loop time of 0.00284078 on 2 procs for 1 steps with 3 atoms

run 1 pre no post no update no
   Step          Temp          E_pair         E_mol          TotEng         Press     
       188   6857.7518      2.1581651      0.19457071     4.1256038      332.30397    
       189   6262.513       2.2168348      0.29070568     4.1265272      347.66878    
Loop time of 0.00304692 on 2 procs for 1 steps with 3 atoms

run 1 pre no post no update no
   Step          Temp          E_pair         E_mol          TotEng         Press     
       189   6262.513       2.2168348      0.29070568     4.1265272      347.66878    
       190   5723.5008      2.2666846      0.38100199     4.1273277      358.01931    
Loop time of 0.00295025 on 2 procs for 1 steps with 3 atoms

run 1 pre yes post no update no
Per MPI rank memory allocation (min/avg/max) = 9.142 | 9.262 | 9.381 Mbytes
   Step          Temp          E_pair         E_mol          TotEng         Press     
       190   5723.5008      2.2666846      0.38100199     4.1273277      358.01931    
       191   5286.4423      2.3072916      0.45399157     4.1279357      364.35949    
Loop time of 0.00288229 on 2 procs for 1 steps with 3 atoms

run 1 pre no post no update no
   Step          Temp          E_pair         E_mol          TotEng         Press     
       191   5286.4423      2.3072916      0.45399157     4.1279357      364.35949    
       192   4986.1347      2.3384678      0.50081421     4.1282991      367.49498    
Loop time of 0.00299561 on 2 procs for 1 steps with 3 atoms

run 1 pre no post no update no
   Step          Temp          E_pair         E_mol          TotEng         Press     
       192   4986.1347      2.3384678      0.50081421     4.1282991      367.49498    
       193   4843.4735      2.3602414      0.51601122     4.1283888      367.93974    
Loop time of 0.0030778 on 2 procs for 1 steps with 3 atoms

run 1 pre no post no update no
   Step          Temp          E_pair         E_mol          TotEng         Press     
       193   4843.4735      2.3602414      0.51601122     4.1283888      367.93974    
       194   4863.7229      2.3728336      0.4979931      4.1281978      365.86025    
Loop time of 0.00286355 on 2 procs for 1 steps with 3 atoms

run 1 pre no post no update no
   Step          Temp          E_pair         E_mol          TotEng         Press     
       194   4863.7229      2.3728336      0.4979931      4.1281978      365.86025    
       195   5036.2228      2.3766508      0.44913053     4.1277471      361.06362    
Loop time of 0.00285726 on 2 procs for 1 steps with 3 atoms

run 1 pre no post no update no
   Step          Temp          E_pair         E_mol          TotEng         Press     
       195   5036.2228      2.3766508      0.44913053     4.1277471      361.06362    
       196   5335.5607      2.3722698      0.37546171     4.1270822      353.0299     
Loop time of 0.00284866 on 2 procs for 1 steps with 3 atoms

run 1 pre no post no update no
   Step          Temp          E_pair         E_mol          TotEng         Press     
       196   5335.5607      2.3722698      0.37546171     4.1270822      353.0299     
       197   5724.0673      2.3604224      0.28605427     4.1262643      340.9844     
Loop time of 0.0027648 on 2 procs for 1 steps with 3 atoms

run 1 pre no post no update no
   Step          Temp          E_pair         E_mol          TotEng         Press     
       197   5724.0673      2.3604224      0.28605427     4.1262643      340.9844     
       198   6155.3538      2.3419859      0.19209735     4.1253671      324.00167    
Loop time of 0.00284086 on 2 procs for 1 steps with 3 atoms

run 1 pre no post no update no
   Step          Temp          E_pair         E_mol          TotEng         Press     
       198   6155.3538      2.3419859      0.19209735     4.1253671      324.00167    
       199   6578.5182      2.317965       0.1058226      4.1244681      301.12905    
Loop time of 0.00283784 on 2 procs for 1 steps with 3 atoms

run 1 pre no post no update no
   Step          Temp          E_pair         E_mol          TotEng         Press     
       199   6578.5182      2.317965       0.1058226      4.1244681      301.12905    
       200   6942.6178      2.289473       0.039361161    4.1236417      271.51751    
Loop time of 0.00281036 on 2 procs for 1 steps with 3 atoms

run 1 pre yes post no update no
Per MPI rank memory allocation (min/avg/max) = 9.142 | 9.262 | 9.381 Mbytes
   Step          Temp          E_pair         E_mol          TotEng         Press     
       200   6942.6178      2.289473       0.039361161    4.1236417      271.51751    
       201   7201.0199      2.2577056      0.0036384386   4.1229538      234.54726    
Loop time of 0.00318438 on 2 procs for 1 steps with 3 atoms

run 1 pre no post no update no
   Step          Temp          E_pair         E_mol          TotEng         Press     
       201   7201.0199      2.2577056      0.0036384386   4.1229538      234.54726    
       202   7315.2929      2.2239102      0.0073953089   4.1224572      189.93723    
Loop time of 0.00282567 on 2 procs for 1 steps with 3 atoms

run 1 pre no post no update no
   Step          Temp          E_pair         E_mol          TotEng         Press     
       202   7315.2929      2.2239102      0.0073953089   4.1224572      189.93723    
       203   7258.3618      2.189349       0.056406461    4.1221893      137.82957    
Loop time of 0.00287205 on 2 procs for 1 steps with 3 atoms

run 1 pre no post no update no
   Step          Temp          E_pair         E_mol          TotEng         Press     
       203   7258.3618      2.189349       0.056406461    4.1221893      137.82957    
       204   7016.7254      2.1552566      0.15294718     4.1221697      78.842374    
Loop time of 0.0027907 on 2 procs for 1 steps with 3 atoms

run 1 pre no post no update no
   Step          Temp          E_pair         E_mol          TotEng         Press     
       204   7016.7254      2.1552566      0.15294718     4.1221697      78.842374    
       205   6591.604       2.1227953      0.29554        4.1223987      14.086816    
Loop time of 0.00280092 on 2 procs for 1 steps with 3 atoms

run 1 pre no post no update no
   Step          Temp          E_pair         E_mol          TotEng         Press     
       205   6591.604       2.1227953      0.29554        4.1223987      14.086816    
       206   5998.9618      2.0930185      0.47899291     4.1228647     -54.852811    
Loop time of 0.00280027 on 2 procs for 1 steps with 3 atoms

run 1 pre no post no update no
   Step          Temp          E_pair         E_mol          TotEng         Press     
       206   5998.9618      2.0930185      0.47899291     4.1228647     -54.852811    
       207   5268.4209      2.0668307      0.69472205     4.1235464     -125.97573    
Loop time of 0.00281596 on 2 procs for 1 steps with 3 atoms

run 1 pre no post no update no
   Step          Temp          E_pair         E_mol          TotEng         Press     
       207   5268.4209      2.0668307      0.69472205     4.1235464     -125.97573    
       208   4441.1388      2.044968       0.93133352     4.124426      -196.95437    
Loop time of 0.00282257 on 2 procs for 1 steps with 3 atoms

run 1 pre no post no update no
   Step          Temp          E_pair         E_mol          TotEng         Press     
       208   4441.1388      2.044968       0.93133352     4.124426      -196.95437    
       209   3566.7684      2.027983       1.1754226      4.1254876     -265.25331    
Loop time of 0.00287376 on 2 procs for 1 steps with 3 atoms

run 1 pre no post no update no
   Step          Temp          E_pair         E_mol          TotEng         Press     
       209   3566.7684      2.027983       1.1754226      4.1254876     -265.25331    
       210   2699.6791      2.0162441      1.4125313      4.1266973     -328.26964    
Loop time of 0.00302242 on 2 procs for 1 steps with 3 atoms

run 1 pre yes post no update no
Per MPI rank memory allocation (min/avg/max) = 9.142 | 9.262 | 9.381 Mbytes
   Step          Temp          E_pair         E_mol          TotEng         Press     
       210   2699.6791      2.0162441      1.4125313      4.1266973     -328.26964    
       211   1894.7512      2.0099516      1.6281889      4.1279721     -383.48445    
Loop time of 0.00282473 on 2 procs for 1 steps with 3 atoms

run 1 pre no post no update no
   Step          Temp          E_pair         E_mol          TotEng         Press     
       211   1894.7512      2.0099516      1.6281889      4.1279721     -383.48445    
       212   1203.1878      2.0091641      1.8089495      4.1291621     -428.61115    
Loop time of 0.00274566 on 2 procs for 1 steps with 3 atoms

run 1 pre no post no update no
   Step          Temp          E_pair         E_mol          TotEng         Press     
       212   1203.1878      2.0091641      1.8089495      4.1291621     -428.61115    
       213   668.79774      2.0138264      1.9433448      4.130069      -461.72775    
Loop time of 0.0028179 on 2 procs for 1 steps with 3 atoms

run 1 pre no post no update no
   Step          Temp          E_pair         E_mol          TotEng         Press     
       213   668.79774      2.0138264      1.9433448      4.130069      -461.72775    
       214   325.02252      2.023815       2.0226858      4.1305257     -481.38367    
Loop time of 0.00283336 on 2 procs for 1 steps with 3 atoms

run 1 pre no post no update no
   Step          Temp          E_pair         E_mol          TotEng         Press     
       214   325.02252      2.023815       2.0226858      4.1305257     -481.38367    
       215   192.74921      2.0389578      2.0416715      4.1304588     -486.68021    
Loop time of 0.00283348 on 2 procs for 1 steps with 3 atoms

run 1 pre no post no update no
   Step          Temp          E_pair         E_mol          TotEng         Press     
       215   192.74921      2.0389578      2.0416715      4.1304588     -486.68021    
       216   278.84291      2.0590614      1.9987773      4.1299253     -477.32346    
Loop time of 0.00282161 on 2 procs for 1 steps with 3 atoms

run 1 pre no post no update no
   Step          Temp          E_pair         E_mol          TotEng         Press     
       216   278.84291      2.0590614      1.9987773      4.1299253     -477.32346    
       217   575.41455      2.0839143      1.8964013      4.129072      -453.64941    
Loop time of 0.00293893 on 2 procs for 1 steps with 3 atoms

run 1 pre no post no update no
   Step          Temp          E_pair         E_mol          TotEng         Press     
       217   575.41455      2.0839143      1.8964013      4.129072      -453.64941    
       218   1059.993       2.113283       1.7407504      4.1280631     -416.61562    
Loop time of 0.00277448 on 2 procs for 1 steps with 3 atoms

run 1 pre no post no update no
   Step          Temp          E_pair         E_mol          TotEng         Press     
       218   1059.993       2.113283       1.7407504      4.1280631     -416.61562    
       219   1696.8207      2.1468955      1.5414563      4.1270144     -367.75435    
Loop time of 0.00282249 on 2 procs for 1 steps with 3 atoms

run 1 pre no post no update no
   Step          Temp          E_pair         E_mol          TotEng         Press     
       219   1696.8207      2.1468955      1.5414563      4.1270144     -367.75435    
       220   2439.344       2.1844258      1.3109345      4.1259802     -309.08497    
Loop time of 0.0027916 on 2 procs for 1 steps with 3 atoms

run 1 pre yes post no update no
Per MPI rank memory allocation (min/avg/max) = 9.142 | 9.262 | 9.381 Mbytes
   Step          Temp          E_pair         E_mol          TotEng         Press     
       220   2439.344       2.1844258      1.3109345      4.1259802     -309.08497    
       221   3233.6899      2.2254834      1.0635279      4.1249858     -242.99174    
Loop time of 0.00282303 on 2 procs for 1 steps with 3 atoms

run 1 pre no post no update no
   Step          Temp          E_pair         E_mol          TotEng         Press     
       221   3233.6899      2.2254834      1.0635279      4.1249858     -242.99174    
       222   4022.7204      2.2695905      0.81450601     4.1240513     -172.07973    
Loop time of 0.00289511 on 2 procs for 1 steps with 3 atoms

run 1 pre no post no update no
   Step          Temp          E_pair         E_mol          TotEng         Press     
       222   4022.7204      2.2695905      0.81450601     4.1240513     -172.07973    
       223   4750.2419      2.3161817      0.57899993     4.1232155     -99.021103    
Loop time of 0.00291141 on 2 procs for 1 steps with 3 atoms

run 1 pre no post no update no
   Step          Temp          E_pair         E_mol          TotEng         Press     
       223   4750.2419      2.3161817      0.57899993     4.1232155     -99.021103    
       224   5365.0471      2.3645973      0.37095484     4.1225257     -26.404444    
Loop time of 0.00283048 on 2 procs for 1 steps with 3 atoms

run 1 pre no post no update no
   Step          Temp          E_pair         E_mol          TotEng         Press     
       224   5365.0471      2.3645973      0.37095484     4.1225257     -26.404444    
       225   5824.553       2.4140887      0.2021738      4.1220276      43.404447    
Loop time of 0.00284812 on 2 procs for 1 steps with 3 atoms

run 1 pre no post no update no
   Step          Temp          E_pair         E_mol          TotEng         Press     
       225   5824.553       2.4140887      0.2021738      4.1220276      43.404447    
       226   6097.8245      2.4638284      0.08151749     4.1217573      108.38199    
Loop time of 0.00291983 on 2 procs for 1 steps with 3 atoms

run 1 pre no post no update no
   Step          Temp          E_pair         E_mol          TotEng         Press     
       226   6097.8245      2.4638284      0.08151749     4.1217573      108.38199    
       227   6167.7725      2.5129259      0.01431452     4.1217347      166.93923    
Loop time of 0.00293217 on 2 procs for 1 steps with 3 atoms

run 1 pre no post no update no
   Step          Temp          E_pair         E_mol          TotEng         Press     
       227   6167.7725      2.5129259      0.01431452     4.1217347      166.93923    
       228   6032.3777      2.5604465      0.0020222836   4.1219609      217.98173    
Loop time of 0.00319646 on 2 procs for 1 steps with 3 atoms

run 1 pre no post no update no
   Step          Temp          E_pair         E_mol          TotEng         Press     
       228   6032.3777      2.5604465      0.0020222836   4.1219609      217.98173    
       229   5704.8568      2.6054402      0.042161613    4.122423       260.93395    
Loop time of 0.00157671 on 2 procs for 1 steps with 3 atoms

run 1 pre no post no update no
   Step          Temp          E_pair         E_mol          TotEng         Press     
       229   5704.8568      2.6054402      0.042161613    4.122423       260.93395    
       230   5212.7585      2.6469552      0.12852973     4.1230888      295.72653    
Loop time of 0.00150395 on 2 procs for 1 steps with 3 atoms

run 1 pre yes post no update no
Per MPI rank memory allocation (min/avg/max) = 9.142 | 9.262 | 9.381 Mbytes
   Step          Temp          E_pair         E_mol          TotEng         Press     
       230   5212.7585      2.6469552      0.12852973     4.1230888      295.72653    
       231   4596.0517      2.6840634      0.25167754     4.1239136      322.74908    
Loop time of 0.00144454 on 2 procs for 1 steps with 3 atoms

run 1 pre no post no update no
   Step          Temp          E_pair         E_mol          TotEng         Press     
       231   4596.0517      2.6840634      0.25167754     4.1239136      322.74908    
       232   3904.3316      2.7158705      0.39961979     4.1248393      342.77167    
Loop time of 0.00150404 on 2 procs for 1 steps with 3 atoms

run 1 pre no post no update no
   Step          Temp          E_pair         E_mol          TotEng         Press     
       232   3904.3316      2.7158705      0.39961979     4.1248393      342.77167    
       233   3193.3255      2.7415309      0.55873124     4.1258015      356.84175    
Loop time of 0.00151577 on 2 procs for 1 steps with 3 atoms

run 1 pre no post no update no
   Step          Temp          E_pair         E_mol          TotEng         Press     
       233   3193.3255      2.7415309      0.55873124     4.1258015      356.84175    
       234   2520.929       2.7602493      0.71476942     4.1267301      366.16356    
Loop time of 0.00150795 on 2 procs for 1 steps with 3 atoms

run 1 pre no post no update no
   Step          Temp          E_pair         E_mol          TotEng         Press     
       234   2520.929       2.7602493      0.71476942     4.1267301      366.16356    
       235   1943.0344      2.77129        0.85395472     4.1275585      371.96968    
Loop time of 0.00154583 on 2 procs for 1 steps with 3 atoms

run 1 pre no post no update no
   Step          Temp          E_pair         E_mol          TotEng         Press     
       235   1943.0344      2.77129        0.85395472     4.1275585      371.96968    
       236   1509.4394      2.7739712      0.96403261     4.1282246      375.39361    
Loop time of 0.00149658 on 2 procs for 1 steps with 3 atoms

run 1 pre no post no update no
   Step          Temp          E_pair         E_mol          TotEng         Press     
       236   1509.4394      2.7739712      0.96403261     4.1282246      375.39361    
       237   1260.1293      2.7676664      1.0352409      4.1286762      377.35389    
Loop time of 0.00151133 on 2 procs for 1 steps with 3 atoms

run 1 pre no post no update no
   Step          Temp          E_pair         E_mol          TotEng         Press     
       237   1260.1293      2.7676664      1.0352409      4.1286762      377.35389    
       238   1222.2134      2.7518038      1.061107       4.1288778      378.45882    
Loop time of 0.00146186 on 2 procs for 1 steps with 3 atoms

run 1 pre no post no update no
   Step          Temp          E_pair         E_mol          TotEng         Press     
       238   1222.2134      2.7518038      1.061107       4.1288778      378.45882    
       239   1407.7655      2.7258635      1.0390104      4.1288098      378.93987    
Loop time of 0.00149547 on 2 procs for 1 steps with 3 atoms

run 1 pre no post no update no
   Step          Temp          E_pair         E_mol          TotEng         Press     
       239   1407.7655      2.7258635      1.0390104      4.1288098      378.93987    
       240   1812.758       2.6893817      0.97045769     4.1284741      378.62029    
Loop time of 0.00146209 on 2 procs for 1 steps with 3 atoms

run 1 pre yes post no update no
Per MPI rank memory allocation (min/avg/max) = 9.142 | 9.262 | 9.381 Mbytes
   Step          Temp          E_pair         E_mol          TotEng         Press     
       240   1812.758       2.6893817      0.97045769     4.1284741      378.62029    
       241   2417.1923      2.6419549      0.86104464     4.1278928      376.9219     
Loop time of 0.00149845 on 2 procs for 1 steps with 3 atoms

run 1 pre no post no update no
   Step          Temp          E_pair         E_mol          TotEng         Press     
       241   2417.1923      2.6419549      0.86104464     4.1278928      376.9219     
       242   3186.4317      2.5832506      0.72009967     4.1271075      372.91079    
Loop time of 0.00150295 on 2 procs for 1 steps with 3 atoms

run 1 pre no post no update no
   Step          Temp          E_pair         E_mol          TotEng         Press     
       242   3186.4317      2.5832506      0.72009967     4.1271075      372.91079    
       243   4073.6309      2.5130203      0.56003651     4.126173       365.37836    
Loop time of 0.00151637 on 2 procs for 1 steps with 3 atoms

run 1 pre no post no update no
   Step          Temp          E_pair         E_mol          TotEng         Press     
       243   4073.6309      2.5130203      0.56003651     4.126173       365.37836    
       244   5023.0624      2.4311261      0.39546544     4.1251551      352.95231    
Loop time of 0.0129375 on 2 procs for 1 steps with 3 atoms

run 1 pre no post no update no
   Step          Temp          E_pair         E_mol          TotEng         Press     
       244   5023.0624      2.4311261      0.39546544     4.1251551      352.95231    
       245   5974.0596      2.3375745      0.24213345     4.1241236      334.22886    
Loop time of 0.00293595 on 2 procs for 1 steps with 3 atoms

run 1 pre no post no update no
   Step          Temp          E_pair         E_mol          TotEng         Press     
       245   5974.0596      2.3375745      0.24213345     4.1241236      334.22886    
       246   6865.2533      2.2325678      0.11577474     4.1231499      307.91699    
Loop time of 0.00286401 on 2 procs for 1 steps with 3 atoms

run 1 pre no post no update no
   Step          Temp          E_pair         E_mol          TotEng         Press     
       246   6865.2533      2.2325678      0.11577474     4.1231499      307.91699    
       247   7638.7586      2.1165645      0.030956852    4.1222955      272.98462    
Loop time of 0.00282481 on 2 procs for 1 steps with 3 atoms

run 1 pre no post no update no
   Step          Temp          E_pair         E_mol          TotEng         Press     
       247   7638.7586      2.1165645      0.030956852    4.1222955      272.98462    
       248   8243.9865      1.9903702      3.5038713e-06  4.1216115      228.79798    
Loop time of 0.00289005 on 2 procs for 1 steps with 3 atoms

run 1 pre no post no update no
   Step          Temp          E_pair         E_mol          TotEng         Press     
       248   8243.9865      1.9903702      3.5038713e-06  4.1216115      228.79798    
       249   8640.811       1.855249       0.032065011    4.1211389      175.24629    
Loop time of 0.00282495 on 2 procs for 1 steps with 3 atoms

run 1 pre no post no update no
   Step          Temp          E_pair         E_mol          TotEng         Press     
       249   8640.811       1.855249       0.032065011    4.1211389      175.24629    
       250   8802.1084      1.7130557      0.13239172     4.120971       112.84848    
Loop time of 0.00280832 on 2 procs for 1 steps with 3 atoms

run 1 pre yes post no update no
Per MPI rank memory allocation (min/avg/max) = 9.142 | 9.262 | 9.381 Mbytes
   Step          Temp          E_pair         E_mol          TotEng         Press     
       250   8802.1084      1.7130557      0.13239172     4.120971       112.84848    
       251   8717.5023      1.5663893      0.30185306     4.1218936      42.866857    
Loop time of 0.00276152 on 2 procs for 1 steps with 3 atoms

run 1 pre no post no update no
   Step          Temp          E_pair         E_mol          TotEng         Press     
       251   8717.5023      1.5663893      0.30185306     4.1218936      42.866857    
       252   8406.7535      1.4186901      0.53679815     4.1288046     -32.45653     
Loop time of 0.00280875 on 2 procs for 1 steps with 3 atoms

run 1 pre no post no update no
   Step          Temp          E_pair         E_mol          TotEng         Press     
       252   8406.7535      1.4186901      0.53679815     4.1288046     -32.45653     
       253   7954.9408      1.2740889      0.82977092     4.1603734     -109.43707    
Loop time of 0.00288459 on 2 procs for 1 steps with 3 atoms

run 1 pre no post no update no
   Step          Temp          E_pair         E_mol          TotEng         Press     
       253   7954.9408      1.2740889      0.82977092     4.1603734     -109.43707    
       254   7541.4005      1.136666       1.1725946      4.2588656     -182.90972    
Loop time of 0.00285646 on 2 procs for 1 steps with 3 atoms

run 1 pre no post no update no
   Step          Temp          E_pair         E_mol          TotEng         Press     
       254   7541.4005      1.136666       1.1725946      4.2588656     -182.90972    
       255   7351.4642      1.0096022      1.5626043      4.4727092     -248.27328    
Loop time of 0.00284773 on 2 procs for 1 steps with 3 atoms

run 1 pre no post no update no
   Step          Temp          E_pair         E_mol          TotEng         Press     
       255   7351.4642      1.0096022      1.5626043      4.4727092     -248.27328    
       256   7374.1636      0.89688412     2.0053313      4.8085863     -304.22131    
Loop time of 0.00291129 on 2 procs for 1 steps with 3 atoms

run 1 pre no post no update no
   Step          Temp          E_pair         E_mol          TotEng         Press     
       256   7374.1636      0.89688412     2.0053313      4.8085863     -304.22131    
       257   7465.9242      0.80805209     2.5050745      5.2432194     -349.34512    
Loop time of 0.00288858 on 2 procs for 1 steps with 3 atoms

run 0 pre yes post no
PPPM initialization ...
  using 12-bit tables for long-range coulomb (src/kspace.cpp:342)
  G vector (1/distance) = 0.28934131
  grid = 18 18 18
  stencil order = 5
  estimated absolute RMS force accuracy = 7.7110449e-05
  estimated relative force accuracy = 5.3550243e-06
  using double precision KISS FFT
  3d grid and FFT values/proc = 10000 2916
Generated 0 of 21 mixed pair_coeff terms from geometric mixing rule
Per MPI rank memory allocation (min/avg/max) = 9.142 | 9.262 | 9.381 Mbytes
   Step          Temp          E_pair         E_mol          TotEng         Press     
       257   7465.9242      0.80805209     2.5050745      5.2432194     -349.34512    
Loop time of 1.843e-06 on 2 procs for 0 steps with 3 atoms

run 0 pre yes post no
PPPM initialization ...
  using 12-bit tables for long-range coulomb (src/kspace.cpp:342)
  G vector (1/distance) = 0.28934131
  grid = 18 18 18
  stencil order = 5
  estimated absolute RMS force accuracy = 7.7110449e-05
  estimated relative force accuracy = 5.3550243e-06
  using double precision KISS FFT
  3d grid and FFT values/proc = 10000 2916
Generated 0 of 21 mixed pair_coeff terms from geometric mixing rule
Per MPI rank memory allocation (min/avg/max) = 9.142 | 9.262 | 9.381 Mbytes
   Step          Temp          E_pair         E_mol          TotEng         Press     
       257   7465.9242      0.80805209     2.5050745      5.2432194     -349.34512    
Loop time of 1.869e-06 on 2 procs for 0 steps with 3 atoms

clear
OMP_NUM_THREADS environment is not set. Defaulting to 1 thread. (src/comm.cpp:98)
  using 1 OpenMP thread(s) per MPI task
units metal
atom_style full
boundary p p p
read_data /tmp/mustard.13e25e9621594b2cbe116fd2c800b3e6
Reading data file ...
  triclinic box = (0 0 0) to (25.319 25.319 25.319) with tilt (0 0 0)
  1 by 1 by 2 MPI processor grid
  reading atoms ...
  3 atoms
  reading velocities ...
  3 velocities
  scanning bonds ...
  1 = max bonds/atom
  reading bonds ...
  1 bonds
Finding 1-2 1-3 1-4 neighbors ...
  special bond factors lj:    0        0        0       
  special bond factors coul:  0        0        0       
     1 = max # of 1-2 neighbors
     0 = max # of 1-3 neighbors
     0 = max # of 1-4 neighbors
     1 = max # of special neighbors
  special bonds CPU = 0.000 seconds
  read_data CPU = 0.001 seconds

change_box all triclinic
Changing box ...
  triclinic box = (0 0 0) to (25.319 25.319 25.319) with tilt (0 0 0)
include ff.lmp
##############################################################################################
#### Atoms' types - mass - charge
##############################################################################################
#@ 7   atom types

variable Ba  equal 1
variable Zr  equal 2
variable  Y  equal 3
variable O1  equal 4
variable O2  equal 5
variable O3  equal 6
variable H1  equal 7

##############################################################################################
#### Atoms' masses
##############################################################################################

mass  ${Ba}   137.327
mass  1   137.327
mass  ${Zr}    91.224
mass  2    91.224
mass  ${Y}     88.910
mass  3     88.910
mass  ${O1}    100000
mass  4    100000
# mass  ${O1}    15.996
mass  ${O2}    100000
mass  5    100000
# mass  ${O2}    15.996
mass  ${O3}    15.996
mass  6    15.996
mass  ${H1}     1.008
mass  7     1.008

##############################################################################################
#### Atoms' charges
##############################################################################################

set type ${Ba}  charge     2.000000
set type 1  charge     2.000000
Setting atom values ...
  0 settings made for charge
set type ${Zr}  charge     4.000000
set type 2  charge     4.000000
Setting atom values ...
  0 settings made for charge
set type ${Y}   charge     3.000000
set type 3   charge     3.000000
Setting atom values ...
  0 settings made for charge
set type ${O1}  charge    -1.308698
set type 4  charge    -1.308698
Setting atom values ...
  1 settings made for charge
set type ${O2}  charge    -2.000000
set type 5  charge    -2.000000
Setting atom values ...
  1 settings made for charge
set type ${O3}  charge    -2.000000
set type 6  charge    -2.000000
Setting atom values ...
  0 settings made for charge
set type ${H1}  charge     0.308698
set type 7  charge     0.308698
Setting atom values ...
  1 settings made for charge

##############################################################################################
#### Covalent bonds parameters
##############################################################################################
#@  1   bond types

bond_style harmonic
#@ O1 - H1
# bond_coeff   1      11.504000      0.985357
bond_coeff   1      23.008000      0.985357

##############################################################################################
# Pair potentials
##############################################################################################

variable rmin  equal  8.
variable rmax  equal 10.

pair_style hybrid/overlay buck/mdf ${rmin} ${rmax} lennard/mdf ${rmin} ${rmax} coul/long ${rmax}
pair_style hybrid/overlay buck/mdf 8 ${rmax} lennard/mdf ${rmin} ${rmax} coul/long ${rmax}
pair_style hybrid/overlay buck/mdf 8 10 lennard/mdf ${rmin} ${rmax} coul/long ${rmax}
pair_style hybrid/overlay buck/mdf 8 10 lennard/mdf 8 ${rmax} coul/long ${rmax}
pair_style hybrid/overlay buck/mdf 8 10 lennard/mdf 8 10 coul/long ${rmax}
pair_style hybrid/overlay buck/mdf 8 10 lennard/mdf 8 10 coul/long 10

##############################################################################################
# Buckingham interaction potentials
pair_coeff  ${Ba}  ${O1}  buck/mdf   688.21662   0.392014   0.000
pair_coeff  1  ${O1}  buck/mdf   688.21662   0.392014   0.000
pair_coeff  1  4  buck/mdf   688.21662   0.392014   0.000
pair_coeff  ${Ba}  ${O2}  buck/mdf   972.19945   0.392014   0.000
pair_coeff  1  ${O2}  buck/mdf   972.19945   0.392014   0.000
pair_coeff  1  5  buck/mdf   972.19945   0.392014   0.000
pair_coeff  ${Ba}  ${O3}  buck/mdf   972.19945   0.392014   0.000
pair_coeff  1  ${O3}  buck/mdf   972.19945   0.392014   0.000
pair_coeff  1  6  buck/mdf   972.19945   0.392014   0.000

pair_coeff  ${Y}   ${O1}  buck/mdf   2972.3808   0.267317   0.000
pair_coeff  3   ${O1}  buck/mdf   2972.3808   0.267317   0.000
pair_coeff  3   4  buck/mdf   2972.3808   0.267317   0.000
pair_coeff  ${Y}   ${O2}  buck/mdf   4121.8373   0.280386   0.000
pair_coeff  3   ${O2}  buck/mdf   4121.8373   0.280386   0.000
pair_coeff  3   5  buck/mdf   4121.8373   0.280386   0.000
pair_coeff  ${Y}   ${O3}  buck/mdf   4121.8373   0.280386   0.000
pair_coeff  3   ${O3}  buck/mdf   4121.8373   0.280386   0.000
pair_coeff  3   6  buck/mdf   4121.8373   0.280386   0.000

pair_coeff  ${Zr}  ${O1}  buck/mdf   2195.8712   0.298760   0.000
pair_coeff  2  ${O1}  buck/mdf   2195.8712   0.298760   0.000
pair_coeff  2  4  buck/mdf   2195.8712   0.298760   0.000
pair_coeff  ${Zr}  ${O2}  buck/mdf   3250.8545   0.298760   0.000
pair_coeff  2  ${O2}  buck/mdf   3250.8545   0.298760   0.000
pair_coeff  2  5  buck/mdf   3250.8545   0.298760   0.000
pair_coeff  ${Zr}  ${O3}  buck/mdf   3250.8545   0.298760   0.000
pair_coeff  2  ${O3}  buck/mdf   3250.8545   0.298760   0.000
pair_coeff  2  6  buck/mdf   3250.8545   0.298760   0.000

pair_coeff  ${O1}  ${O1}  buck/mdf   22764.000   0.149000   0.000
pair_coeff  4  ${O1}  buck/mdf   22764.000   0.149000   0.000
pair_coeff  4  4  buck/mdf   22764.000   0.149000   0.000
pair_coeff  ${O1}  ${O2}  buck/mdf   22764.000   0.149000   0.000
pair_coeff  4  ${O2}  buck/mdf   22764.000   0.149000   0.000
pair_coeff  4  5  buck/mdf   22764.000   0.149000   0.000
pair_coeff  ${O1}  ${O3}  buck/mdf   22764.000   0.149000   0.000
pair_coeff  4  ${O3}  buck/mdf   22764.000   0.149000   0.000
pair_coeff  4  6  buck/mdf   22764.000   0.149000   0.000

pair_coeff  ${O2}  ${O2}  buck/mdf   22764.000   0.149000   0.000
pair_coeff  5  ${O2}  buck/mdf   22764.000   0.149000   0.000
pair_coeff  5  5  buck/mdf   22764.000   0.149000   0.000
pair_coeff  ${O2}  ${O3}  buck/mdf   22764.000   0.149000   0.000
pair_coeff  5  ${O3}  buck/mdf   22764.000   0.149000   0.000
pair_coeff  5  6  buck/mdf   22764.000   0.149000   0.000

pair_coeff  ${O3}  ${O3}  buck/mdf   22764.000   0.149000   0.000
pair_coeff  6  ${O3}  buck/mdf   22764.000   0.149000   0.000
pair_coeff  6  6  buck/mdf   22764.000   0.149000   0.000

##############################################################################################
# 12-6 Lennard-Jones potentials
pair_coeff  ${O1}  ${H1}  lennard/mdf    6.391   0.000
pair_coeff  4  ${H1}  lennard/mdf    6.391   0.000
pair_coeff  4  7  lennard/mdf    6.391   0.000
pair_coeff  ${O2}  ${H1}  lennard/mdf    6.391   0.000
pair_coeff  5  ${H1}  lennard/mdf    6.391   0.000
pair_coeff  5  7  lennard/mdf    6.391   0.000
pair_coeff  ${O3}  ${H1}  lennard/mdf    7.800   0.000
pair_coeff  6  ${H1}  lennard/mdf    7.800   0.000
pair_coeff  6  7  lennard/mdf    7.800   0.000

##############################################################################################
# Coulombic interaction
pair_coeff      *      *  coul/long

#########################################################################################################
# Parameters for reciprocal space electrostatics
#########################################################################################################

kspace_style pppm 1.0e-5
kspace_modify fftbench no
fix md all nve
timestep 0.0002

change_box all x final 0.0 25.319 y final 0.0 25.319 z final 0.0 25.319 xy final 0.0 xz final 0.0 yz final 0.0
Changing box ...
  triclinic box = (0 0 0) to (25.319 25.319 25.319) with tilt (0 0 0)
  triclinic box = (0 0 0) to (25.319 25.319 25.319) with tilt (0 0 0)
  triclinic box = (0 0 0) to (25.319 25.319 25.319) with tilt (0 0 0)
  triclinic box = (0 0 0) to (25.319 25.319 25.319) with tilt (0 0 0)
  triclinic box = (0 0 0) to (25.319 25.319 25.319) with tilt (0 0 0)
  triclinic box = (0 0 0) to (25.319 25.319 25.319) with tilt (0 0 0)
reset_timestep 257
fix ux all store/state 1 xu yu zu
fix ext all external pf/callback 1 1
fix_modify ext energy no
fix_modify ext virial no
compute get_pe all pe

run 0 pre yes post no
PPPM initialization ...
WARNING: System is not charge neutral, net charge = -3 (src/kspace.cpp:327)
  using 12-bit tables for long-range coulomb (src/kspace.cpp:342)
  G vector (1/distance) = 0.28934131
  grid = 18 18 18
  stencil order = 5
  estimated absolute RMS force accuracy = 7.7110449e-05
  estimated relative force accuracy = 5.3550243e-06
  using double precision KISS FFT
  3d grid and FFT values/proc = 10000 2916
Generated 0 of 21 mixed pair_coeff terms from geometric mixing rule
Neighbor list info ...
  update: every = 1 steps, delay = 0 steps, check = yes
  max neighbors/atom: 2000, page size: 100000
  master list distance cutoff = 12
  ghost atom cutoff = 12
  binsize = 6, bins = 5 5 5
  3 neighbor lists, perpetual/occasional/extra = 3 0 0
  (1) pair buck/mdf, perpetual, skip from (3)
      attributes: half, newton on
      pair build: skip
      stencil: none
      bin: none
  (2) pair lennard/mdf, perpetual, skip from (3)
      attributes: half, newton on
      pair build: skip
      stencil: none
      bin: none
  (3) pair coul/long, perpetual
      attributes: half, newton on
      pair build: half/bin/newton/tri
      stencil: half/bin/3d/tri
      bin: standard
Per MPI rank memory allocation (min/avg/max) = 9.142 | 9.262 | 9.381 Mbytes
   Step          Temp          E_pair         E_mol          TotEng         Press     
       257   7418.8819      0.93609572     1.7892677      4.6432949     -275.10342    
Loop time of 2.3295e-06 on 2 procs for 0 steps with 3 atoms

run 0 pre yes post no
PPPM initialization ...
  using 12-bit tables for long-range coulomb (src/kspace.cpp:342)
  G vector (1/distance) = 0.28934131
  grid = 18 18 18
  stencil order = 5
  estimated absolute RMS force accuracy = 7.7110449e-05
  estimated relative force accuracy = 5.3550243e-06
  using double precision KISS FFT
  3d grid and FFT values/proc = 10000 2916
Generated 0 of 21 mixed pair_coeff terms from geometric mixing rule
Per MPI rank memory allocation (min/avg/max) = 9.142 | 9.262 | 9.381 Mbytes
   Step          Temp          E_pair         E_mol          TotEng         Press     
       257   7418.8819      0.93609572     1.7892677      4.6432949     -275.10342    
Loop time of 2.144e-06 on 2 procs for 0 steps with 3 atoms

run 1 pre yes post no update no
Per MPI rank memory allocation (min/avg/max) = 9.142 | 9.262 | 9.381 Mbytes
   Step          Temp          E_pair         E_mol          TotEng         Press     
       257   7465.9242      0.93609572     1.7892677      4.6554563     -274.3031     
       258   7658.1605      1.0465019      1.3411455      4.3674373     -205.32961    
Loop time of 0.0028113 on 2 procs for 1 steps with 3 atoms

run 1 pre no post no update no
   Step          Temp          E_pair         E_mol          TotEng         Press     
       258   7658.1605      1.0465019      1.3411455      4.3674373     -205.32961    
       259   8060.7311      1.1690707      0.95219175     4.205125      -129.07512    
Loop time of 0.00278956 on 2 procs for 1 steps with 3 atoms

run 1 pre no post no update no
   Step          Temp          E_pair         E_mol          TotEng         Press     
       259   8060.7311      1.1690707      0.95219175     4.205125      -129.07512    
       260   8581.7194      1.3013823      0.62091213     4.1408431     -48.133853    
Loop time of 0.00281425 on 2 procs for 1 steps with 3 atoms

run 1 pre yes post no update no
Per MPI rank memory allocation (min/avg/max) = 9.142 | 9.262 | 9.381 Mbytes
   Step          Temp          E_pair         E_mol          TotEng         Press     
       260   8581.7194      1.3013823      0.62091213     4.1408431     -48.133853    
       261   9011.5096      1.4401603      0.3536458      4.1234642      32.267831    
Loop time of 0.00350619 on 2 procs for 1 steps with 3 atoms

run 1 pre no post no update no
   Step          Temp          E_pair         E_mol          TotEng         Press     
       261   9011.5096      1.4401603      0.3536458      4.1234642      32.267831    
       262   9208.746       1.5811384      0.15864195     4.1204281      107.52007    
Loop time of 0.00342282 on 2 procs for 1 steps with 3 atoms

run 1 pre no post no update no
   Step          Temp          E_pair         E_mol          TotEng         Press     
       262   9208.746       1.5811384      0.15864195     4.1204281      107.52007    
       263   9126.253       1.7201932      0.040834549    4.1203493      174.71739    
Loop time of 0.00331367 on 2 procs for 1 steps with 3 atoms

run 1 pre no post no update no
   Step          Temp          E_pair         E_mol          TotEng         Press     
       263   9126.253       1.7201932      0.040834549    4.1203493      174.71739    
       264   8768.5368      1.8539234      8.8176951e-05  4.1208562      232.2696     
Loop time of 0.00293475 on 2 procs for 1 steps with 3 atoms

run 1 pre no post no update no
   Step          Temp          E_pair         E_mol          TotEng         Press     
       264   8768.5368      1.8539234      8.8176951e-05  4.1208562      232.2696     
       265   8164.8412      1.979722       0.031131579    4.1216307      279.50952    
Loop time of 0.00279932 on 2 procs for 1 steps with 3 atoms

run 1 pre no post no update no
   Step          Temp          E_pair         E_mol          TotEng         Press     
       265   8164.8412      1.979722       0.031131579    4.1216307      279.50952    
       266   7360.6155      2.0956773      0.12406413     4.1226099      316.51563    
Loop time of 0.00293614 on 2 procs for 1 steps with 3 atoms

run 1 pre no post no update no
   Step          Temp          E_pair         E_mol          TotEng         Press     
       266   7360.6155      2.0956773      0.12406413     4.1226099      316.51563    
       267   6413.9175      2.2004393      0.26516779     4.1237349      343.98593    
Loop time of 0.00283688 on 2 procs for 1 steps with 3 atoms

run 1 pre no post no update no
   Step          Temp          E_pair         E_mol          TotEng         Press     
       267   6413.9175      2.2004393      0.26516779     4.1237349      343.98593    
       268   5391.7559      2.2930976      0.43796001     4.1249359      363.0964     
Loop time of 0.00286114 on 2 procs for 1 steps with 3 atoms

run 1 pre no post no update no
   Step          Temp          E_pair         E_mol          TotEng         Press     
       268   5391.7559      2.2930976      0.43796001     4.1249359      363.0964     
       269   4365.7396      2.3730722      0.62442822     4.1261327      375.3399     
Loop time of 0.00298307 on 2 procs for 1 steps with 3 atoms

run 1 pre no post no update no
   Step          Temp          E_pair         E_mol          TotEng         Press     
       269   4365.7396      2.3730722      0.62442822     4.1261327      375.3399     
       270   3407.2453      2.440031       0.80637009     4.1272432      382.35489    
Loop time of 0.00286189 on 2 procs for 1 steps with 3 atoms

run 1 pre yes post no update no
Per MPI rank memory allocation (min/avg/max) = 9.142 | 9.262 | 9.381 Mbytes
   Step          Temp          E_pair         E_mol          TotEng         Press     
       270   3407.2453      2.440031       0.80637009     4.1272432      382.35489    
       271   2582.4483      2.4938236      0.96674955     4.1281885      385.75419    
Loop time of 0.00301292 on 2 procs for 1 steps with 3 atoms

run 1 pre no post no update no
   Step          Temp          E_pair         E_mol          TotEng         Press     
       271   2582.4483      2.4938236      0.96674955     4.1281885      385.75419    
       272   1947.6057      2.534432       1.090971       4.1288986      386.96543    
Loop time of 0.00279355 on 2 procs for 1 steps with 3 atoms

run 1 pre no post no update no
   Step          Temp          E_pair         E_mol          TotEng         Press     
       272   1947.6057      2.534432       1.090971       4.1288986      386.96543    
       273   1544.9769      2.5619417      1.1679737      4.1293233      387.09499    
Loop time of 0.00156942 on 2 procs for 1 steps with 3 atoms

run 1 pre no post no update no
   Step          Temp          E_pair         E_mol          TotEng         Press     
       273   1544.9769      2.5619417      1.1679737      4.1293233      387.09499    
       274   1399.734       2.5765151      1.1910566      4.1294314      386.82504    
Loop time of 0.00141483 on 2 procs for 1 steps with 3 atoms

run 1 pre no post no update no
   Step          Temp          E_pair         E_mol          TotEng         Press     
       274   1399.734       2.5765151      1.1910566      4.1294314      386.82504    
       275   1518.1389      2.5783824      1.1583652      4.1292173      386.35274    
Loop time of 0.00140141 on 2 procs for 1 steps with 3 atoms

run 1 pre no post no update no
   Step          Temp          E_pair         E_mol          TotEng         Press     
       275   1518.1389      2.5783824      1.1583652      4.1292173      386.35274    
       276   1887.1484      2.5678351      1.0729971      4.1286984      385.37569    
Loop time of 0.00147712 on 2 procs for 1 steps with 3 atoms

run 1 pre no post no update no
   Step          Temp          E_pair         E_mol          TotEng         Press     
       276   1887.1484      2.5678351      1.0729971      4.1286984      385.37569    
       277   2475.4808      2.545233       0.94272141     4.1279164      383.12497    
Loop time of 0.00147479 on 2 procs for 1 steps with 3 atoms

run 1 pre no post no update no
   Step          Temp          E_pair         E_mol          TotEng         Press     
       277   2475.4808      2.545233       0.94272141     4.1279164      383.12497    
       278   3236.04        2.5110117      0.77933815     4.1269318      378.44184    
Loop time of 0.00146243 on 2 procs for 1 steps with 3 atoms

run 1 pre no post no update no
   Step          Temp          E_pair         E_mol          TotEng         Press     
       278   3236.04        2.5110117      0.77933815     4.1269318      378.44184    
       279   4109.4751      2.4656972      0.5977377      4.1258176      369.89126    
Loop time of 0.00391674 on 2 procs for 1 steps with 3 atoms

run 1 pre no post no update no
   Step          Temp          E_pair         E_mol          TotEng         Press     
       279   4109.4751      2.4656972      0.5977377      4.1258176      369.89126    
       280   5028.5753      2.4099275      0.41473909     4.1246554      355.90248    
Loop time of 0.00340443 on 2 procs for 1 steps with 3 atoms

run 1 pre yes post no update no
Per MPI rank memory allocation (min/avg/max) = 9.142 | 9.262 | 9.381 Mbytes
   Step          Temp          E_pair         E_mol          TotEng         Press     
       280   5028.5753      2.4099275      0.41473909     4.1246554      355.90248    
       281   5923.1466      2.3444741      0.2478002      4.1235279      334.92506    
Loop time of 0.0028877 on 2 procs for 1 steps with 3 atoms

run 1 pre no post no update no
   Step          Temp          E_pair         E_mol          TotEng         Press     
       281   5923.1466      2.3444741      0.2478002      4.1235279      334.92506    
       282   6725.0117      2.2702661      0.11369528     4.1225133      305.58817    
Loop time of 0.00307475 on 2 procs for 1 steps with 3 atoms

run 1 pre no post no update no
   Step          Temp          E_pair         E_mol          TotEng         Press     
       282   6725.0117      2.2702661      0.11369528     4.1225133      305.58817    
       283   7372.7838      2.1884143      0.027252851    4.1216814      266.85135    
Loop time of 0.00311089 on 2 procs for 1 steps with 3 atoms

run 1 pre no post no update no
   Step          Temp          E_pair         E_mol          TotEng         Press     
       283   7372.7838      2.1884143      0.027252851    4.1216814      266.85135    
       284   7816.1032      2.1002272      0.00023795046  4.1210864      218.13538    
Loop time of 0.00314486 on 2 procs for 1 steps with 3 atoms

run 1 pre no post no update no
   Step          Temp          E_pair         E_mol          TotEng         Press     
       284   7816.1032      2.1002272      0.00023795046  4.1210864      218.13538    
       285   8019.0782      2.0072249      0.040451216    4.1207705      159.42393    
Loop time of 0.00309852 on 2 procs for 1 steps with 3 atoms

run 1 pre no post no update no
   Step          Temp          E_pair         E_mol          TotEng         Press     
       285   8019.0782      2.0072249      0.040451216    4.1207705      159.42393    
       286   7962.7587      1.9111266      0.15110153     4.1207628      91.327644    
Loop time of 0.00333551 on 2 procs for 1 steps with 3 atoms

run 1 pre no post no update no
   Step          Temp          E_pair         E_mol          TotEng         Press     
       286   7962.7587      1.9111266      0.15110153     4.1207628      91.327644    
       287   7646.7233      1.8138329      0.33049242     4.1211584      15.109178    
Loop time of 0.0034385 on 2 procs for 1 steps with 3 atoms

run 1 pre no post no update no
   Step          Temp          E_pair         E_mol          TotEng         Press     
       287   7646.7233      1.8138329      0.33049242     4.1211584      15.109178    
       288   7090.5956      1.717371       0.57205264     4.1224864     -67.322456    
Loop time of 0.00366802 on 2 procs for 1 steps with 3 atoms

run 1 pre no post no update no
   Step          Temp          E_pair         E_mol          TotEng         Press     
       288   7090.5956      1.717371       0.57205264     4.1224864     -67.322456    
       289   6337.0626      1.6237884      0.86477472     4.1268224     -153.43359    
Loop time of 0.00323498 on 2 procs for 1 steps with 3 atoms

run 1 pre no post no update no
   Step          Temp          E_pair         E_mol          TotEng         Press     
       289   6337.0626      1.6237884      0.86477472     4.1268224     -153.43359    
       290   5455.4705      1.5349608      1.194253       4.1395636     -240.14853    
Loop time of 0.00325126 on 2 procs for 1 steps with 3 atoms

run 1 pre yes post no update no
Per MPI rank memory allocation (min/avg/max) = 9.142 | 9.262 | 9.381 Mbytes
   Step          Temp          E_pair         E_mol          TotEng         Press     
       290   5455.4705      1.5349608      1.194253       4.1395636     -240.14853    
       291   4538.1069      1.4522616      1.5445999      4.1700542     -324.15427    
Loop time of 0.00303884 on 2 procs for 1 steps with 3 atoms

run 1 pre no post no update no
   Step          Temp          E_pair         E_mol          TotEng         Press     
       291   4538.1069      1.4522616      1.5445999      4.1700542     -324.15427    
       292   3681.6465      1.3761934      1.9011313      4.229105      -402.50588    
Loop time of 0.00304593 on 2 procs for 1 steps with 3 atoms

run 1 pre no post no update no
   Step          Temp          E_pair         E_mol          TotEng         Press     
       292   3681.6465      1.3761934      1.9011313      4.229105      -402.50588    
       293   2962.1742      1.306192       2.2529061      4.3248802     -473.24764    
Loop time of 0.00286867 on 2 procs for 1 steps with 3 atoms

run 1 pre no post no update no
   Step          Temp          E_pair         E_mol          TotEng         Press     
       293   2962.1742      1.306192       2.2529061      4.3248802     -473.24764    
       294   2422.4979      1.2407937      2.5940179      4.4610764     -535.61983    
Loop time of 0.00278532 on 2 procs for 1 steps with 3 atoms

run 1 pre no post no update no
   Step          Temp          E_pair         E_mol          TotEng         Press     
       294   2422.4979      1.2407937      2.5940179      4.4610764     -535.61983    
       295   2077.8009      1.1780421      2.9234027      4.6385985     -589.78322    
Loop time of 0.0028048 on 2 procs for 1 steps with 3 atoms

run 1 pre no post no update no
   Step          Temp          E_pair         E_mol          TotEng         Press     
       295   2077.8009      1.1780421      2.9234027      4.6385985     -589.78322    
       296   1929.4119      1.1159862      3.2439         4.8586784     -636.36094    
Loop time of 0.00315088 on 2 procs for 1 steps with 3 atoms

run 1 pre no post no update no
   Step          Temp          E_pair         E_mol          TotEng         Press     
       296   1929.4119      1.1159862      3.2439         4.8586784     -636.36094    
       297   1975.7028      1.0530634      3.5614835      5.1253062     -676.08182    
Loop time of 0.00337866 on 2 procs for 1 steps with 3 atoms

run 0 pre yes post no
PPPM initialization ...
  using 12-bit tables for long-range coulomb (src/kspace.cpp:342)
  G vector (1/distance) = 0.28934131
  grid = 18 18 18
  stencil order = 5
  estimated absolute RMS force accuracy = 7.7110449e-05
  estimated relative force accuracy = 5.3550243e-06
  using double precision KISS FFT
  3d grid and FFT values/proc = 10000 2916
Generated 0 of 21 mixed pair_coeff terms from geometric mixing rule
Per MPI rank memory allocation (min/avg/max) = 9.142 | 9.262 | 9.381 Mbytes
   Step          Temp          E_pair         E_mol          TotEng         Press     
       297   1975.7028      1.0530634      3.5614835      5.1253062     -676.08182    
Loop time of 2.079e-06 on 2 procs for 0 steps with 3 atoms

run 0 pre yes post no
PPPM initialization ...
  using 12-bit tables for long-range coulomb (src/kspace.cpp:342)
  G vector (1/distance) = 0.28934131
  grid = 18 18 18
  stencil order = 5
  estimated absolute RMS force accuracy = 7.7110449e-05
  estimated relative force accuracy = 5.3550243e-06
  using double precision KISS FFT
  3d grid and FFT values/proc = 10000 2916
Generated 0 of 21 mixed pair_coeff terms from geometric mixing rule
Per MPI rank memory allocation (min/avg/max) = 9.142 | 9.262 | 9.381 Mbytes
   Step          Temp          E_pair         E_mol          TotEng         Press     
       297   1975.7028      1.0530634      3.5614835      5.1253062     -676.08182    
Loop time of 1.954e-06 on 2 procs for 0 steps with 3 atoms

clear
OMP_NUM_THREADS environment is not set. Defaulting to 1 thread. (src/comm.cpp:98)
  using 1 OpenMP thread(s) per MPI task
units metal
atom_style full
boundary p p p
read_data /tmp/mustard.13e25e9621594b2cbe116fd2c800b3e6
Reading data file ...
  triclinic box = (0 0 0) to (25.319 25.319 25.319) with tilt (0 0 0)
  1 by 1 by 2 MPI processor grid
  reading atoms ...
  3 atoms
  reading velocities ...
  3 velocities
  scanning bonds ...
  1 = max bonds/atom
  reading bonds ...
  1 bonds
Finding 1-2 1-3 1-4 neighbors ...
  special bond factors lj:    0        0        0       
  special bond factors coul:  0        0        0       
     1 = max # of 1-2 neighbors
     0 = max # of 1-3 neighbors
     0 = max # of 1-4 neighbors
     1 = max # of special neighbors
  special bonds CPU = 0.000 seconds
  read_data CPU = 0.001 seconds

change_box all triclinic
Changing box ...
  triclinic box = (0 0 0) to (25.319 25.319 25.319) with tilt (0 0 0)
include ff.lmp
##############################################################################################
#### Atoms' types - mass - charge
##############################################################################################
#@ 7   atom types

variable Ba  equal 1
variable Zr  equal 2
variable  Y  equal 3
variable O1  equal 4
variable O2  equal 5
variable O3  equal 6
variable H1  equal 7

##############################################################################################
#### Atoms' masses
##############################################################################################

mass  ${Ba}   137.327
mass  1   137.327
mass  ${Zr}    91.224
mass  2    91.224
mass  ${Y}     88.910
mass  3     88.910
mass  ${O1}    100000
mass  4    100000
# mass  ${O1}    15.996
mass  ${O2}    100000
mass  5    100000
# mass  ${O2}    15.996
mass  ${O3}    15.996
mass  6    15.996
mass  ${H1}     1.008
mass  7     1.008

##############################################################################################
#### Atoms' charges
##############################################################################################

set type ${Ba}  charge     2.000000
set type 1  charge     2.000000
Setting atom values ...
  0 settings made for charge
set type ${Zr}  charge     4.000000
set type 2  charge     4.000000
Setting atom values ...
  0 settings made for charge
set type ${Y}   charge     3.000000
set type 3   charge     3.000000
Setting atom values ...
  0 settings made for charge
set type ${O1}  charge    -1.308698
set type 4  charge    -1.308698
Setting atom values ...
  1 settings made for charge
set type ${O2}  charge    -2.000000
set type 5  charge    -2.000000
Setting atom values ...
  1 settings made for charge
set type ${O3}  charge    -2.000000
set type 6  charge    -2.000000
Setting atom values ...
  0 settings made for charge
set type ${H1}  charge     0.308698
set type 7  charge     0.308698
Setting atom values ...
  1 settings made for charge

##############################################################################################
#### Covalent bonds parameters
##############################################################################################
#@  1   bond types

bond_style harmonic
#@ O1 - H1
# bond_coeff   1      11.504000      0.985357
bond_coeff   1      23.008000      0.985357

##############################################################################################
# Pair potentials
##############################################################################################

variable rmin  equal  8.
variable rmax  equal 10.

pair_style hybrid/overlay buck/mdf ${rmin} ${rmax} lennard/mdf ${rmin} ${rmax} coul/long ${rmax}
pair_style hybrid/overlay buck/mdf 8 ${rmax} lennard/mdf ${rmin} ${rmax} coul/long ${rmax}
pair_style hybrid/overlay buck/mdf 8 10 lennard/mdf ${rmin} ${rmax} coul/long ${rmax}
pair_style hybrid/overlay buck/mdf 8 10 lennard/mdf 8 ${rmax} coul/long ${rmax}
pair_style hybrid/overlay buck/mdf 8 10 lennard/mdf 8 10 coul/long ${rmax}
pair_style hybrid/overlay buck/mdf 8 10 lennard/mdf 8 10 coul/long 10

##############################################################################################
# Buckingham interaction potentials
pair_coeff  ${Ba}  ${O1}  buck/mdf   688.21662   0.392014   0.000
pair_coeff  1  ${O1}  buck/mdf   688.21662   0.392014   0.000
pair_coeff  1  4  buck/mdf   688.21662   0.392014   0.000
pair_coeff  ${Ba}  ${O2}  buck/mdf   972.19945   0.392014   0.000
pair_coeff  1  ${O2}  buck/mdf   972.19945   0.392014   0.000
pair_coeff  1  5  buck/mdf   972.19945   0.392014   0.000
pair_coeff  ${Ba}  ${O3}  buck/mdf   972.19945   0.392014   0.000
pair_coeff  1  ${O3}  buck/mdf   972.19945   0.392014   0.000
pair_coeff  1  6  buck/mdf   972.19945   0.392014   0.000

pair_coeff  ${Y}   ${O1}  buck/mdf   2972.3808   0.267317   0.000
pair_coeff  3   ${O1}  buck/mdf   2972.3808   0.267317   0.000
pair_coeff  3   4  buck/mdf   2972.3808   0.267317   0.000
pair_coeff  ${Y}   ${O2}  buck/mdf   4121.8373   0.280386   0.000
pair_coeff  3   ${O2}  buck/mdf   4121.8373   0.280386   0.000
pair_coeff  3   5  buck/mdf   4121.8373   0.280386   0.000
pair_coeff  ${Y}   ${O3}  buck/mdf   4121.8373   0.280386   0.000
pair_coeff  3   ${O3}  buck/mdf   4121.8373   0.280386   0.000
pair_coeff  3   6  buck/mdf   4121.8373   0.280386   0.000

pair_coeff  ${Zr}  ${O1}  buck/mdf   2195.8712   0.298760   0.000
pair_coeff  2  ${O1}  buck/mdf   2195.8712   0.298760   0.000
pair_coeff  2  4  buck/mdf   2195.8712   0.298760   0.000
pair_coeff  ${Zr}  ${O2}  buck/mdf   3250.8545   0.298760   0.000
pair_coeff  2  ${O2}  buck/mdf   3250.8545   0.298760   0.000
pair_coeff  2  5  buck/mdf   3250.8545   0.298760   0.000
pair_coeff  ${Zr}  ${O3}  buck/mdf   3250.8545   0.298760   0.000
pair_coeff  2  ${O3}  buck/mdf   3250.8545   0.298760   0.000
pair_coeff  2  6  buck/mdf   3250.8545   0.298760   0.000

pair_coeff  ${O1}  ${O1}  buck/mdf   22764.000   0.149000   0.000
pair_coeff  4  ${O1}  buck/mdf   22764.000   0.149000   0.000
pair_coeff  4  4  buck/mdf   22764.000   0.149000   0.000
pair_coeff  ${O1}  ${O2}  buck/mdf   22764.000   0.149000   0.000
pair_coeff  4  ${O2}  buck/mdf   22764.000   0.149000   0.000
pair_coeff  4  5  buck/mdf   22764.000   0.149000   0.000
pair_coeff  ${O1}  ${O3}  buck/mdf   22764.000   0.149000   0.000
pair_coeff  4  ${O3}  buck/mdf   22764.000   0.149000   0.000
pair_coeff  4  6  buck/mdf   22764.000   0.149000   0.000

pair_coeff  ${O2}  ${O2}  buck/mdf   22764.000   0.149000   0.000
pair_coeff  5  ${O2}  buck/mdf   22764.000   0.149000   0.000
pair_coeff  5  5  buck/mdf   22764.000   0.149000   0.000
pair_coeff  ${O2}  ${O3}  buck/mdf   22764.000   0.149000   0.000
pair_coeff  5  ${O3}  buck/mdf   22764.000   0.149000   0.000
pair_coeff  5  6  buck/mdf   22764.000   0.149000   0.000

pair_coeff  ${O3}  ${O3}  buck/mdf   22764.000   0.149000   0.000
pair_coeff  6  ${O3}  buck/mdf   22764.000   0.149000   0.000
pair_coeff  6  6  buck/mdf   22764.000   0.149000   0.000

##############################################################################################
# 12-6 Lennard-Jones potentials
pair_coeff  ${O1}  ${H1}  lennard/mdf    6.391   0.000
pair_coeff  4  ${H1}  lennard/mdf    6.391   0.000
pair_coeff  4  7  lennard/mdf    6.391   0.000
pair_coeff  ${O2}  ${H1}  lennard/mdf    6.391   0.000
pair_coeff  5  ${H1}  lennard/mdf    6.391   0.000
pair_coeff  5  7  lennard/mdf    6.391   0.000
pair_coeff  ${O3}  ${H1}  lennard/mdf    7.800   0.000
pair_coeff  6  ${H1}  lennard/mdf    7.800   0.000
pair_coeff  6  7  lennard/mdf    7.800   0.000

##############################################################################################
# Coulombic interaction
pair_coeff      *      *  coul/long

#########################################################################################################
# Parameters for reciprocal space electrostatics
#########################################################################################################

kspace_style pppm 1.0e-5
kspace_modify fftbench no
fix md all nve
timestep 0.0002

change_box all x final 0.0 25.319 y final 0.0 25.319 z final 0.0 25.319 xy final 0.0 xz final 0.0 yz final 0.0
Changing box ...
  triclinic box = (0 0 0) to (25.319 25.319 25.319) with tilt (0 0 0)
  triclinic box = (0 0 0) to (25.319 25.319 25.319) with tilt (0 0 0)
  triclinic box = (0 0 0) to (25.319 25.319 25.319) with tilt (0 0 0)
  triclinic box = (0 0 0) to (25.319 25.319 25.319) with tilt (0 0 0)
  triclinic box = (0 0 0) to (25.319 25.319 25.319) with tilt (0 0 0)
  triclinic box = (0 0 0) to (25.319 25.319 25.319) with tilt (0 0 0)
reset_timestep 297
fix ux all store/state 1 xu yu zu
fix ext all external pf/callback 1 1
fix_modify ext energy no
fix_modify ext virial no
compute get_pe all pe

run 0 pre yes post no
PPPM initialization ...
WARNING: System is not charge neutral, net charge = -3 (src/kspace.cpp:327)
  using 12-bit tables for long-range coulomb (src/kspace.cpp:342)
  G vector (1/distance) = 0.28934131
  grid = 18 18 18
  stencil order = 5
  estimated absolute RMS force accuracy = 7.7110449e-05
  estimated relative force accuracy = 5.3550243e-06
  using double precision KISS FFT
  3d grid and FFT values/proc = 10000 2916
Generated 0 of 21 mixed pair_coeff terms from geometric mixing rule
Neighbor list info ...
  update: every = 1 steps, delay = 0 steps, check = yes
  max neighbors/atom: 2000, page size: 100000
  master list distance cutoff = 12
  ghost atom cutoff = 12
  binsize = 6, bins = 5 5 5
  3 neighbor lists, perpetual/occasional/extra = 3 0 0
  (1) pair buck/mdf, perpetual, skip from (3)
      attributes: half, newton on
      pair build: skip
      stencil: none
      bin: none
  (2) pair lennard/mdf, perpetual, skip from (3)
      attributes: half, newton on
      pair build: skip
      stencil: none
      bin: none
  (3) pair coul/long, perpetual
      attributes: half, newton on
      pair build: half/bin/newton/tri
      stencil: half/bin/3d/tri
      bin: standard
Per MPI rank memory allocation (min/avg/max) = 9.142 | 9.262 | 9.381 Mbytes
   Step          Temp          E_pair         E_mol          TotEng         Press     
       297   1913.5778      1.1423554      3.1055541      4.7426082     -617.93698    
Loop time of 3.161e-06 on 2 procs for 0 steps with 3 atoms

run 0 pre yes post no
PPPM initialization ...
  using 12-bit tables for long-range coulomb (src/kspace.cpp:342)
  G vector (1/distance) = 0.28934131
  grid = 18 18 18
  stencil order = 5
  estimated absolute RMS force accuracy = 7.7110449e-05
  estimated relative force accuracy = 5.3550243e-06
  using double precision KISS FFT
  3d grid and FFT values/proc = 10000 2916
Generated 0 of 21 mixed pair_coeff terms from geometric mixing rule
Per MPI rank memory allocation (min/avg/max) = 9.142 | 9.262 | 9.381 Mbytes
   Step          Temp          E_pair         E_mol          TotEng         Press     
       297   1913.5778      1.1423554      3.1055541      4.7426082     -617.93698    
Loop time of 2.2445e-06 on 2 procs for 0 steps with 3 atoms

run 1 pre yes post no update no
Per MPI rank memory allocation (min/avg/max) = 9.142 | 9.262 | 9.381 Mbytes
   Step          Temp          E_pair         E_mol          TotEng         Press     
       297   1975.7028      1.1423554      3.1055541      4.7586688     -616.88006    
       298   2216.7437      1.204033       2.7801098      4.557216      -566.6943     
Loop time of 0.00337338 on 2 procs for 1 steps with 3 atoms

run 1 pre no post no update no
   Step          Temp          E_pair         E_mol          TotEng         Press     
       298   2216.7437      1.204033       2.7801098      4.557216      -566.6943     
       299   2653.1881      1.2672313      2.4444122      4.3975465     -508.6797     
Loop time of 0.00343237 on 2 procs for 1 steps with 3 atoms

run 1 pre no post no update no
   Step          Temp          E_pair         E_mol          TotEng         Press     
       299   2653.1881      1.2672313      2.4444122      4.3975465     -508.6797     
       300   3279.0251      1.3339623      2.0972635      4.2789204     -442.37407    
Loop time of 0.00341719 on 2 procs for 1 steps with 3 atoms

run 1 pre yes post no update no
Per MPI rank memory allocation (min/avg/max) = 9.142 | 9.262 | 9.381 Mbytes
   Step          Temp          E_pair         E_mol          TotEng         Press     
       300   3279.0251      1.3339623      2.0972635      4.2789204     -442.37407    
       301   4068.5523      1.4060408      1.7417732      4.1996173     -367.9679     
Loop time of 0.00298427 on 2 procs for 1 steps with 3 atoms

run 1 pre no post no update no
   Step          Temp          E_pair         E_mol          TotEng         Press     
       301   4068.5523      1.4060408      1.7417732      4.1996173     -367.9679     
       302   4964.3401      1.4845842      1.386093       4.1540598     -286.72954    
Loop time of 0.00289836 on 2 procs for 1 steps with 3 atoms

run 1 pre no post no update no
   Step          Temp          E_pair         E_mol          TotEng         Press     
       302   4964.3401      1.4845842      1.386093       4.1540598     -286.72954    
       303   5878.8438      1.5697036      1.0430176      4.1325216     -201.09666    
Loop time of 0.00277789 on 2 procs for 1 steps with 3 atoms

run 1 pre no post no update no
   Step          Temp          E_pair         E_mol          TotEng         Press     
       303   5878.8438      1.5697036      1.0430176      4.1325216     -201.09666    
       304   6714.3083      1.6604821      0.72805904     4.1243261     -114.25443    
Loop time of 0.00280481 on 2 procs for 1 steps with 3 atoms

run 1 pre no post no update no
   Step          Temp          E_pair         E_mol          TotEng         Press     
       304   6714.3083      1.6604821      0.72805904     4.1243261     -114.25443    
       305   7387.2111      1.7552799      0.4566935      4.1217174     -29.464113    
Loop time of 0.00278766 on 2 procs for 1 steps with 3 atoms

run 1 pre no post no update no
   Step          Temp          E_pair         E_mol          TotEng         Press     
       305   7387.2111      1.7552799      0.4566935      4.1217174     -29.464113    
       306   7840.2934      1.8521047      0.24194518     4.1209248      50.423498    
Loop time of 0.00302427 on 2 procs for 1 steps with 3 atoms

run 1 pre no post no update no
   Step          Temp          E_pair         E_mol          TotEng         Press     
       306   7840.2934      1.8521047      0.24194518     4.1209248      50.423498    
       307   8041.7774      1.9488942      0.092879282    4.1207361      123.15415    
Loop time of 0.0027492 on 2 procs for 1 steps with 3 atoms

run 1 pre no post no update no
   Step          Temp          E_pair         E_mol          TotEng         Press     
       307   8041.7774      1.9488942      0.092879282    4.1207361      123.15415    
       308   7981.4523      2.0436593      0.013864767    4.1208914      187.11158    
Loop time of 0.0027814 on 2 procs for 1 steps with 3 atoms

run 1 pre no post no update no
   Step          Temp          E_pair         E_mol          TotEng         Press     
       308   7981.4523      2.0436593      0.013864767    4.1208914      187.11158    
       309   7668.4226      2.1345623      0.0043347048   4.1213399      241.33143    
Loop time of 0.00295668 on 2 procs for 1 steps with 3 atoms

run 1 pre no post no update no
   Step          Temp          E_pair         E_mol          TotEng         Press     
       309   7668.4226      2.1345623      0.0043347048   4.1213399      241.33143    
       310   7129.6902      2.2199625      0.058918081    4.1220502      285.49477    
Loop time of 0.00277551 on 2 procs for 1 steps with 3 atoms

run 1 pre yes post no update no
Per MPI rank memory allocation (min/avg/max) = 9.142 | 9.262 | 9.381 Mbytes
   Step          Temp          E_pair         E_mol          TotEng         Press     
       310   7129.6902      2.2199625      0.058918081    4.1220502      285.49477    
       311   6408.1867      2.298426       0.16790237     4.1229747      319.88507    
Loop time of 0.00284018 on 2 procs for 1 steps with 3 atoms

run 1 pre no post no update no
   Step          Temp          E_pair         E_mol          TotEng         Press     
       311   6408.1867      2.298426       0.16790237     4.1229747      319.88507    
       312   5559.8349      2.3687267      0.31799399     4.1240509      345.30608    
Loop time of 0.00286074 on 2 procs for 1 steps with 3 atoms

run 1 pre no post no update no
   Step          Temp          E_pair         E_mol          TotEng         Press     
       312   5559.8349      2.3687267      0.31799399     4.1240509      345.30608    
       313   4649.7061      2.4298308      0.49332881     4.125203       362.96553    
Loop time of 0.00281286 on 2 procs for 1 steps with 3 atoms

run 1 pre no post no update no
   Step          Temp          E_pair         E_mol          TotEng         Press     
       313   4649.7061      2.4298308      0.49332881     4.125203       362.96553    
       314   3747.4907      2.4808813      0.67666855     4.1263523      374.33374    
Loop time of 0.00283752 on 2 procs for 1 steps with 3 atoms

run 1 pre no post no update no
   Step          Temp          E_pair         E_mol          TotEng         Press     
       314   3747.4907      2.4808813      0.67666855     4.1263523      374.33374    
       315   2922.5677      2.5211671      0.85070456     4.1274147      380.987      
Loop time of 0.00274614 on 2 procs for 1 steps with 3 atoms

run 1 pre no post no update no
   Step          Temp          E_pair         E_mol          TotEng         Press     
       315   2922.5677      2.5211671      0.85070456     4.1274147      380.987      
       316   2239.0064      2.5501024      0.99937997     4.128311       384.44811    
Loop time of 0.00149223 on 2 procs for 1 steps with 3 atoms

run 1 pre no post no update no
   Step          Temp          E_pair         E_mol          TotEng         Press     
       316   2239.0064      2.5501024      0.99937997     4.128311       384.44811    
       317   1750.8572      2.567207       1.1091348      4.1289738      386.03591    
Loop time of 0.00139357 on 2 procs for 1 steps with 3 atoms

run 1 pre no post no update no
   Step          Temp          E_pair         E_mol          TotEng         Press     
       317   1750.8572      2.567207       1.1091348      4.1289738      386.03591    
       318   1498.0962      2.5720847      1.1699777      4.1293506      386.73562    
Loop time of 0.00145246 on 2 procs for 1 steps with 3 atoms

run 1 pre no post no update no
   Step          Temp          E_pair         E_mol          TotEng         Press     
       318   1498.0962      2.5720847      1.1699777      4.1293506      386.73562    
       319   1503.5583      2.5644144      1.1762964      4.1294111      387.10152    
Loop time of 0.00142215 on 2 procs for 1 steps with 3 atoms

run 1 pre no post no update no
   Step          Temp          E_pair         E_mol          TotEng         Press     
       319   1503.5583      2.5644144      1.1762964      4.1294111      387.10152    
       320   1771.1315      2.5439398      1.1273342      4.1291474      387.20001    
Loop time of 0.00148631 on 2 procs for 1 steps with 3 atoms

run 1 pre yes post no update no
Per MPI rank memory allocation (min/avg/max) = 9.142 | 9.262 | 9.381 Mbytes
   Step          Temp          E_pair         E_mol          TotEng         Press     
       320   1771.1315      2.5439398      1.1273342      4.1291474      387.20001    
       321   2285.382       2.5104735      1.0272878      4.1285789      386.5993     
Loop time of 0.00146055 on 2 procs for 1 steps with 3 atoms

run 1 pre no post no update no
   Step          Temp          E_pair         E_mol          TotEng         Press     
       321   2285.382       2.5104735      1.0272878      4.1285789      386.5993     
       322   3012.6498      2.463901       0.88501503     4.1277472      384.40635    
Loop time of 0.00364329 on 2 procs for 1 steps with 3 atoms

run 1 pre no post no update no
   Step          Temp          E_pair         E_mol          TotEng         Press     
       322   3012.6498      2.463901       0.88501503     4.1277472      384.40635    
       323   3903.5189      2.4041984      0.71337533     4.1267126      379.34894    
Loop time of 0.00297991 on 2 procs for 1 steps with 3 atoms

run 1 pre no post no update no
   Step          Temp          E_pair         E_mol          TotEng         Press     
       323   3903.5189      2.4041984      0.71337533     4.1267126      379.34894    
       324   4896.4356      2.3314601      0.52826209     4.1255501      369.89598    
Loop time of 0.00283901 on 2 procs for 1 steps with 3 atoms

run 1 pre no post no update no
   Step          Temp          E_pair         E_mol          TotEng         Press     
       324   4896.4356      2.3314601      0.52826209     4.1255501      369.89598    
       325   5922.1574      2.245938       0.34740611     4.124342       354.40646    
Loop time of 0.00284406 on 2 procs for 1 steps with 3 atoms

run 1 pre no post no update no
   Step          Temp          E_pair         E_mol          TotEng         Press     
       325   5922.1574      2.245938       0.34740611     4.124342       354.40646    
       326   6908.6545      2.1480952      0.1890467      4.1231693      331.29592    
Loop time of 0.00278706 on 2 procs for 1 steps with 3 atoms

run 1 pre no post no update no
   Step          Temp          E_pair         E_mol          TotEng         Press     
       326   6908.6545      2.1480952      0.1890467      4.1231693      331.29592    
       327   7786.0722      2.0386815      0.070569784    4.122109       299.20892    
Loop time of 0.00288101 on 2 procs for 1 steps with 3 atoms

run 1 pre no post no update no
   Step          Temp          E_pair         E_mol          TotEng         Press     
       327   7786.0722      2.0386815      0.070569784    4.122109       299.20892    
       328   8491.3831      1.9188237      0.0072079672   4.1212265      257.18574    
Loop time of 0.00285108 on 2 procs for 1 steps with 3 atoms

run 1 pre no post no update no
   Step          Temp          E_pair         E_mol          TotEng         Press     
       328   8491.3831      1.9188237      0.0072079672   4.1212265      257.18574    
       329   8972.4244      1.7901355      0.010886585    4.1205758      204.81337    
Loop time of 0.00285368 on 2 procs for 1 steps with 3 atoms

run 1 pre no post no update no
   Step          Temp          E_pair         E_mol          TotEng         Press     
       329   8972.4244      1.7901355      0.010886585    4.1205758      204.81337    
       330   9191.3252      1.6548422      0.089283691    4.1202699      142.35492    
Loop time of 0.00287511 on 2 procs for 1 steps with 3 atoms

run 1 pre yes post no update no
Per MPI rank memory allocation (min/avg/max) = 9.142 | 9.262 | 9.381 Mbytes
   Step          Temp          E_pair         E_mol          TotEng         Press     
       330   9191.3252      1.6548422      0.089283691    4.1202699      142.35492    
       331   9129.2472      1.5158948      0.24515882     4.1211493      70.879465    
Loop time of 0.00277021 on 2 procs for 1 steps with 3 atoms

run 1 pre no post no update no
   Step          Temp          E_pair         E_mol          TotEng         Press     
       331   9129.2472      1.5158948      0.24515882     4.1211493      70.879465    
       332   8801.1857      1.3769999      0.47606201     4.128347      -7.4912338    
Loop time of 0.00284508 on 2 procs for 1 steps with 3 atoms

run 1 pre no post no update no
   Step          Temp          E_pair         E_mol          TotEng         Press     
       332   8801.1857      1.3769999      0.47606201     4.128347      -7.4912338    
       333   8292.3796      1.2423542      0.77497469     4.1610773     -89.131507    
Loop time of 0.00289033 on 2 procs for 1 steps with 3 atoms

run 1 pre no post no update no
   Step          Temp          E_pair         E_mol          TotEng         Press     
       333   8292.3796      1.2423542      0.77497469     4.1610773     -89.131507    
       334   7784.0335      1.1157378      1.133472       4.2615403     -168.97803    
Loop time of 0.00298099 on 2 procs for 1 steps with 3 atoms

run 1 pre no post no update no
   Step          Temp          E_pair         E_mol          TotEng         Press     
       334   7784.0335      1.1157378      1.133472       4.2615403     -168.97803    
       335   7458.4061      0.99959031     1.5480923      4.4758319     -242.72508    
Loop time of 0.00286787 on 2 procs for 1 steps with 3 atoms

run 1 pre no post no update no
   Step          Temp          E_pair         E_mol          TotEng         Press     
       335   7458.4061      0.99959031     1.5480923      4.4758319     -242.72508    
       336   7309.9469      0.89654203     2.0228996      4.8092113     -309.40518    
Loop time of 0.00311066 on 2 procs for 1 steps with 3 atoms

run 1 pre no post no update no
   Step          Temp          E_pair         E_mol          TotEng         Press     
       336   7309.9469      0.89654203     2.0228996      4.8092113     -309.40518    
       337   7226.5121      0.81342271     2.5605363      5.242159      -368.03123    
Loop time of 0.00324708 on 2 procs for 1 steps with 3 atoms

run 0 pre yes post no
PPPM initialization ...
  using 12-bit tables for long-range coulomb (src/kspace.cpp:342)
  G vector (1/distance) = 0.28934131
  grid = 18 18 18
  stencil order = 5
  estimated absolute RMS force accuracy = 7.7110449e-05
  estimated relative force accuracy = 5.3550243e-06
  using double precision KISS FFT
  3d grid and FFT values/proc = 10000 2916
Generated 0 of 21 mixed pair_coeff terms from geometric mixing rule
Per MPI rank memory allocation (min/avg/max) = 9.142 | 9.262 | 9.381 Mbytes
   Step          Temp          E_pair         E_mol          TotEng         Press     
       337   7226.5121      0.81342271     2.5605363      5.242159      -368.03123    
Loop time of 2.229e-06 on 2 procs for 0 steps with 3 atoms

run 0 pre yes post no
PPPM initialization ...
  using 12-bit tables for long-range coulomb (src/kspace.cpp:342)
  G vector (1/distance) = 0.28934131
  grid = 18 18 18
  stencil order = 5
  estimated absolute RMS force accuracy = 7.7110449e-05
  estimated relative force accuracy = 5.3550243e-06
  using double precision KISS FFT
  3d grid and FFT values/proc = 10000 2916
Generated 0 of 21 mixed pair_coeff terms from geometric mixing rule
Per MPI rank memory allocation (min/avg/max) = 9.142 | 9.262 | 9.381 Mbytes
   Step          Temp          E_pair         E_mol          TotEng         Press     
       337   7226.5121      0.81342271     2.5605363      5.242159      -368.03123    
Loop time of 1.5625e-06 on 2 procs for 0 steps with 3 atoms

clear
OMP_NUM_THREADS environment is not set. Defaulting to 1 thread. (src/comm.cpp:98)
  using 1 OpenMP thread(s) per MPI task
units metal
atom_style full
boundary p p p
read_data /tmp/mustard.13e25e9621594b2cbe116fd2c800b3e6
Reading data file ...
  triclinic box = (0 0 0) to (25.319 25.319 25.319) with tilt (0 0 0)
  1 by 1 by 2 MPI processor grid
  reading atoms ...
  3 atoms
  reading velocities ...
  3 velocities
  scanning bonds ...
  1 = max bonds/atom
  reading bonds ...
  1 bonds
Finding 1-2 1-3 1-4 neighbors ...
  special bond factors lj:    0        0        0       
  special bond factors coul:  0        0        0       
     1 = max # of 1-2 neighbors
     0 = max # of 1-3 neighbors
     0 = max # of 1-4 neighbors
     1 = max # of special neighbors
  special bonds CPU = 0.000 seconds
  read_data CPU = 0.001 seconds

change_box all triclinic
Changing box ...
  triclinic box = (0 0 0) to (25.319 25.319 25.319) with tilt (0 0 0)
include ff.lmp
##############################################################################################
#### Atoms' types - mass - charge
##############################################################################################
#@ 7   atom types

variable Ba  equal 1
variable Zr  equal 2
variable  Y  equal 3
variable O1  equal 4
variable O2  equal 5
variable O3  equal 6
variable H1  equal 7

##############################################################################################
#### Atoms' masses
##############################################################################################

mass  ${Ba}   137.327
mass  1   137.327
mass  ${Zr}    91.224
mass  2    91.224
mass  ${Y}     88.910
mass  3     88.910
mass  ${O1}    100000
mass  4    100000
# mass  ${O1}    15.996
mass  ${O2}    100000
mass  5    100000
# mass  ${O2}    15.996
mass  ${O3}    15.996
mass  6    15.996
mass  ${H1}     1.008
mass  7     1.008

##############################################################################################
#### Atoms' charges
##############################################################################################

set type ${Ba}  charge     2.000000
set type 1  charge     2.000000
Setting atom values ...
  0 settings made for charge
set type ${Zr}  charge     4.000000
set type 2  charge     4.000000
Setting atom values ...
  0 settings made for charge
set type ${Y}   charge     3.000000
set type 3   charge     3.000000
Setting atom values ...
  0 settings made for charge
set type ${O1}  charge    -1.308698
set type 4  charge    -1.308698
Setting atom values ...
  1 settings made for charge
set type ${O2}  charge    -2.000000
set type 5  charge    -2.000000
Setting atom values ...
  1 settings made for charge
set type ${O3}  charge    -2.000000
set type 6  charge    -2.000000
Setting atom values ...
  0 settings made for charge
set type ${H1}  charge     0.308698
set type 7  charge     0.308698
Setting atom values ...
  1 settings made for charge

##############################################################################################
#### Covalent bonds parameters
##############################################################################################
#@  1   bond types

bond_style harmonic
#@ O1 - H1
# bond_coeff   1      11.504000      0.985357
bond_coeff   1      23.008000      0.985357

##############################################################################################
# Pair potentials
##############################################################################################

variable rmin  equal  8.
variable rmax  equal 10.

pair_style hybrid/overlay buck/mdf ${rmin} ${rmax} lennard/mdf ${rmin} ${rmax} coul/long ${rmax}
pair_style hybrid/overlay buck/mdf 8 ${rmax} lennard/mdf ${rmin} ${rmax} coul/long ${rmax}
pair_style hybrid/overlay buck/mdf 8 10 lennard/mdf ${rmin} ${rmax} coul/long ${rmax}
pair_style hybrid/overlay buck/mdf 8 10 lennard/mdf 8 ${rmax} coul/long ${rmax}
pair_style hybrid/overlay buck/mdf 8 10 lennard/mdf 8 10 coul/long ${rmax}
pair_style hybrid/overlay buck/mdf 8 10 lennard/mdf 8 10 coul/long 10

##############################################################################################
# Buckingham interaction potentials
pair_coeff  ${Ba}  ${O1}  buck/mdf   688.21662   0.392014   0.000
pair_coeff  1  ${O1}  buck/mdf   688.21662   0.392014   0.000
pair_coeff  1  4  buck/mdf   688.21662   0.392014   0.000
pair_coeff  ${Ba}  ${O2}  buck/mdf   972.19945   0.392014   0.000
pair_coeff  1  ${O2}  buck/mdf   972.19945   0.392014   0.000
pair_coeff  1  5  buck/mdf   972.19945   0.392014   0.000
pair_coeff  ${Ba}  ${O3}  buck/mdf   972.19945   0.392014   0.000
pair_coeff  1  ${O3}  buck/mdf   972.19945   0.392014   0.000
pair_coeff  1  6  buck/mdf   972.19945   0.392014   0.000

pair_coeff  ${Y}   ${O1}  buck/mdf   2972.3808   0.267317   0.000
pair_coeff  3   ${O1}  buck/mdf   2972.3808   0.267317   0.000
pair_coeff  3   4  buck/mdf   2972.3808   0.267317   0.000
pair_coeff  ${Y}   ${O2}  buck/mdf   4121.8373   0.280386   0.000
pair_coeff  3   ${O2}  buck/mdf   4121.8373   0.280386   0.000
pair_coeff  3   5  buck/mdf   4121.8373   0.280386   0.000
pair_coeff  ${Y}   ${O3}  buck/mdf   4121.8373   0.280386   0.000
pair_coeff  3   ${O3}  buck/mdf   4121.8373   0.280386   0.000
pair_coeff  3   6  buck/mdf   4121.8373   0.280386   0.000

pair_coeff  ${Zr}  ${O1}  buck/mdf   2195.8712   0.298760   0.000
pair_coeff  2  ${O1}  buck/mdf   2195.8712   0.298760   0.000
pair_coeff  2  4  buck/mdf   2195.8712   0.298760   0.000
pair_coeff  ${Zr}  ${O2}  buck/mdf   3250.8545   0.298760   0.000
pair_coeff  2  ${O2}  buck/mdf   3250.8545   0.298760   0.000
pair_coeff  2  5  buck/mdf   3250.8545   0.298760   0.000
pair_coeff  ${Zr}  ${O3}  buck/mdf   3250.8545   0.298760   0.000
pair_coeff  2  ${O3}  buck/mdf   3250.8545   0.298760   0.000
pair_coeff  2  6  buck/mdf   3250.8545   0.298760   0.000

pair_coeff  ${O1}  ${O1}  buck/mdf   22764.000   0.149000   0.000
pair_coeff  4  ${O1}  buck/mdf   22764.000   0.149000   0.000
pair_coeff  4  4  buck/mdf   22764.000   0.149000   0.000
pair_coeff  ${O1}  ${O2}  buck/mdf   22764.000   0.149000   0.000
pair_coeff  4  ${O2}  buck/mdf   22764.000   0.149000   0.000
pair_coeff  4  5  buck/mdf   22764.000   0.149000   0.000
pair_coeff  ${O1}  ${O3}  buck/mdf   22764.000   0.149000   0.000
pair_coeff  4  ${O3}  buck/mdf   22764.000   0.149000   0.000
pair_coeff  4  6  buck/mdf   22764.000   0.149000   0.000

pair_coeff  ${O2}  ${O2}  buck/mdf   22764.000   0.149000   0.000
pair_coeff  5  ${O2}  buck/mdf   22764.000   0.149000   0.000
pair_coeff  5  5  buck/mdf   22764.000   0.149000   0.000
pair_coeff  ${O2}  ${O3}  buck/mdf   22764.000   0.149000   0.000
pair_coeff  5  ${O3}  buck/mdf   22764.000   0.149000   0.000
pair_coeff  5  6  buck/mdf   22764.000   0.149000   0.000

pair_coeff  ${O3}  ${O3}  buck/mdf   22764.000   0.149000   0.000
pair_coeff  6  ${O3}  buck/mdf   22764.000   0.149000   0.000
pair_coeff  6  6  buck/mdf   22764.000   0.149000   0.000

##############################################################################################
# 12-6 Lennard-Jones potentials
pair_coeff  ${O1}  ${H1}  lennard/mdf    6.391   0.000
pair_coeff  4  ${H1}  lennard/mdf    6.391   0.000
pair_coeff  4  7  lennard/mdf    6.391   0.000
pair_coeff  ${O2}  ${H1}  lennard/mdf    6.391   0.000
pair_coeff  5  ${H1}  lennard/mdf    6.391   0.000
pair_coeff  5  7  lennard/mdf    6.391   0.000
pair_coeff  ${O3}  ${H1}  lennard/mdf    7.800   0.000
pair_coeff  6  ${H1}  lennard/mdf    7.800   0.000
pair_coeff  6  7  lennard/mdf    7.800   0.000

##############################################################################################
# Coulombic interaction
pair_coeff      *      *  coul/long

#########################################################################################################
# Parameters for reciprocal space electrostatics
#########################################################################################################

kspace_style pppm 1.0e-5
kspace_modify fftbench no
fix md all nve
timestep 0.0002

change_box all x final 0.0 25.319 y final 0.0 25.319 z final 0.0 25.319 xy final 0.0 xz final 0.0 yz final 0.0
Changing box ...
  triclinic box = (0 0 0) to (25.319 25.319 25.319) with tilt (0 0 0)
  triclinic box = (0 0 0) to (25.319 25.319 25.319) with tilt (0 0 0)
  triclinic box = (0 0 0) to (25.319 25.319 25.319) with tilt (0 0 0)
  triclinic box = (0 0 0) to (25.319 25.319 25.319) with tilt (0 0 0)
  triclinic box = (0 0 0) to (25.319 25.319 25.319) with tilt (0 0 0)
  triclinic box = (0 0 0) to (25.319 25.319 25.319) with tilt (0 0 0)
reset_timestep 337
fix ux all store/state 1 xu yu zu
fix ext all external pf/callback 1 1
fix_modify ext energy no
fix_modify ext virial no
compute get_pe all pe

run 0 pre yes post no
PPPM initialization ...
WARNING: System is not charge neutral, net charge = -3 (src/kspace.cpp:327)
  using 12-bit tables for long-range coulomb (src/kspace.cpp:342)
  G vector (1/distance) = 0.28934131
  grid = 18 18 18
  stencil order = 5
  estimated absolute RMS force accuracy = 7.7110449e-05
  estimated relative force accuracy = 5.3550243e-06
  using double precision KISS FFT
  3d grid and FFT values/proc = 10000 2916
Generated 0 of 21 mixed pair_coeff terms from geometric mixing rule
Neighbor list info ...
  update: every = 1 steps, delay = 0 steps, check = yes
  max neighbors/atom: 2000, page size: 100000
  master list distance cutoff = 12
  ghost atom cutoff = 12
  binsize = 6, bins = 5 5 5
  3 neighbor lists, perpetual/occasional/extra = 3 0 0
  (1) pair buck/mdf, perpetual, skip from (3)
      attributes: half, newton on
      pair build: skip
      stencil: none
      bin: none
  (2) pair lennard/mdf, perpetual, skip from (3)
      attributes: half, newton on
      pair build: skip
      stencil: none
      bin: none
  (3) pair coul/long, perpetual
      attributes: half, newton on
      pair build: half/bin/newton/tri
      stencil: half/bin/3d/tri
      bin: standard
Per MPI rank memory allocation (min/avg/max) = 9.142 | 9.262 | 9.381 Mbytes
   Step          Temp          E_pair         E_mol          TotEng         Press     
       337   7262.6078      0.94350642     1.8467133      4.6677512     -290.73403    
Loop time of 2.6905e-06 on 2 procs for 0 steps with 3 atoms

run 0 pre yes post no
PPPM initialization ...
  using 12-bit tables for long-range coulomb (src/kspace.cpp:342)
  G vector (1/distance) = 0.28934131
  grid = 18 18 18
  stencil order = 5
  estimated absolute RMS force accuracy = 7.7110449e-05
  estimated relative force accuracy = 5.3550243e-06
  using double precision KISS FFT
  3d grid and FFT values/proc = 10000 2916
Generated 0 of 21 mixed pair_coeff terms from geometric mixing rule
Per MPI rank memory allocation (min/avg/max) = 9.142 | 9.262 | 9.381 Mbytes
   Step          Temp          E_pair         E_mol          TotEng         Press     
       337   7262.6078      0.94350642     1.8467133      4.6677512     -290.73403    
Loop time of 2.0445e-06 on 2 procs for 0 steps with 3 atoms

run 1 pre yes post no update no
Per MPI rank memory allocation (min/avg/max) = 9.142 | 9.262 | 9.381 Mbytes
   Step          Temp          E_pair         E_mol          TotEng         Press     
       337   7226.5121      0.94350642     1.8467133      4.6584197     -291.34812    
       338   7271.1756      1.0625042      1.4297655      4.372016      -232.09439    
Loop time of 0.00327682 on 2 procs for 1 steps with 3 atoms

run 1 pre no post no update no
   Step          Temp          E_pair         E_mol          TotEng         Press     
       338   7271.1756      1.0625042      1.4297655      4.372016      -232.09439    
       339   7565.0969      1.1933571      1.0603384      4.2094266     -163.61722    
Loop time of 0.00311085 on 2 procs for 1 steps with 3 atoms

run 1 pre no post no update no
   Step          Temp          E_pair         E_mol          TotEng         Press     
       339   7565.0969      1.1933571      1.0603384      4.2094266     -163.61722    
       340   8025.3274      1.3331482      0.73573591     4.1435941     -88.459008    
Loop time of 0.0029579 on 2 procs for 1 steps with 3 atoms

run 1 pre yes post no update no
Per MPI rank memory allocation (min/avg/max) = 9.142 | 9.262 | 9.381 Mbytes
   Step          Temp          E_pair         E_mol          TotEng         Press     
       340   8025.3274      1.3331482      0.73573591     4.1435941     -88.459008    
       341   8451.2273      1.4785245      0.46166022     4.1249984     -11.690553    
Loop time of 0.00286905 on 2 procs for 1 steps with 3 atoms

run 1 pre no post no update no
   Step          Temp          E_pair         E_mol          TotEng         Press     
       341   8451.2273      1.4785245      0.46166022     4.1249984     -11.690553    
       342   8700.2926      1.6254094      0.2468177      4.1214292      62.077358    
Loop time of 0.00288152 on 2 procs for 1 steps with 3 atoms

run 1 pre no post no update no
   Step          Temp          E_pair         E_mol          TotEng         Press     
       342   8700.2926      1.6254094      0.2468177      4.1214292      62.077358    
       343   8716.2903      1.7699834      0.09776646     4.1210877      129.7677     
Loop time of 0.00291071 on 2 procs for 1 steps with 3 atoms

run 1 pre no post no update no
   Step          Temp          E_pair         E_mol          TotEng         Press     
       343   8716.2903      1.7699834      0.09776646     4.1210877      129.7677     
       344   8491.5359      1.9091963      0.016931941    4.1213626      189.51869    
Loop time of 0.00284434 on 2 procs for 1 steps with 3 atoms

run 1 pre no post no update no
   Step          Temp          E_pair         E_mol          TotEng         Press     
       344   8491.5359      1.9091963      0.016931941    4.1213626      189.51869    
       345   8041.2441      2.0407745      0.002285937    4.1218852      240.31451    
Loop time of 0.00293345 on 2 procs for 1 steps with 3 atoms

run 1 pre no post no update no
   Step          Temp          E_pair         E_mol          TotEng         Press     
       345   8041.2441      2.0407745      0.002285937    4.1218852      240.31451    
       346   7395.5101      2.1631205      0.04759695     4.1226069      281.825      
Loop time of 0.00284363 on 2 procs for 1 steps with 3 atoms

run 1 pre no post no update no
   Step          Temp          E_pair         E_mol          TotEng         Press     
       346   7395.5101      2.1631205      0.04759695     4.1226069      281.825      
       347   6596.6094      2.2751597      0.14296873     4.1234858      314.30752    
Loop time of 0.00288542 on 2 procs for 1 steps with 3 atoms

run 1 pre no post no update no
   Step          Temp          E_pair         E_mol          TotEng         Press     
       347   6596.6094      2.2751597      0.14296873     4.1234858      314.30752    
       348   5696.3941      2.3762225      0.2756103      4.1244662      338.50003    
Loop time of 0.00291539 on 2 procs for 1 steps with 3 atoms

run 1 pre no post no update no
   Step          Temp          E_pair         E_mol          TotEng         Press     
       348   5696.3941      2.3762225      0.2756103      4.1244662      338.50003    
       349   4752.9791      2.4659489      0.43079375     4.1254841      355.49558    
Loop time of 0.00292478 on 2 procs for 1 steps with 3 atoms

run 1 pre no post no update no
   Step          Temp          E_pair         E_mol          TotEng         Press     
       349   4752.9791      2.4659489      0.43079375     4.1254841      355.49558    
       350   3826.855       2.544211       0.59294029     4.126471       366.60359    
Loop time of 0.0028979 on 2 procs for 1 steps with 3 atoms

run 1 pre yes post no update no
Per MPI rank memory allocation (min/avg/max) = 9.142 | 9.262 | 9.381 Mbytes
   Step          Temp          E_pair         E_mol          TotEng         Press     
       350   3826.855       2.544211       0.59294029     4.126471       366.60359    
       351   2976.7198      2.6110553      0.74676124     4.127359       373.20622    
Loop time of 0.00156624 on 2 procs for 1 steps with 3 atoms

run 1 pre no post no update no
   Step          Temp          E_pair         E_mol          TotEng         Press     
       351   2976.7198      2.6110553      0.74676124     4.127359       373.20622    
       352   2255.3543      2.6666567      0.87837216     4.1280837      376.61923    
Loop time of 0.00164461 on 2 procs for 1 steps with 3 atoms

run 1 pre no post no update no
   Step          Temp          E_pair         E_mol          TotEng         Press     
       352   2255.3543      2.6666567      0.87837216     4.1280837      376.61923    
       353   1705.8773      2.7112944      0.97629649     4.1285947      377.96721    
Loop time of 0.00155113 on 2 procs for 1 steps with 3 atoms

run 1 pre no post no update no
   Step          Temp          E_pair         E_mol          TotEng         Press     
       353   1705.8773      2.7112944      0.97629649     4.1285947      377.96721    
       354   1358.6907      2.745327       1.0322808      4.1288569      378.08188    
Loop time of 0.00139213 on 2 procs for 1 steps with 3 atoms

run 1 pre no post no update no
   Step          Temp          E_pair         E_mol          TotEng         Press     
       354   1358.6907      2.745327       1.0322808      4.1288569      378.08188    
       355   1229.3665      2.7691805      1.0418574      4.1288541      377.43135    
Loop time of 0.00155706 on 2 procs for 1 steps with 3 atoms

run 1 pre no post no update no
   Step          Temp          E_pair         E_mol          TotEng         Press     
       355   1229.3665      2.7691805      1.0418574      4.1288541      377.43135    
       356   1317.6511      2.7833378      1.0046117      4.128589       376.0854     
Loop time of 0.00170176 on 2 procs for 1 steps with 3 atoms

run 1 pre no post no update no
   Step          Temp          E_pair         E_mol          TotEng         Press     
       356   1317.6511      2.7833378      1.0046117      4.128589       376.0854     
       357   1607.6586      2.7883383      0.92413576     4.1280864      373.71912    
Loop time of 0.0014992 on 2 procs for 1 steps with 3 atoms

run 1 pre no post no update no
   Step          Temp          E_pair         E_mol          TotEng         Press     
       357   1607.6586      2.7883383      0.92413576     4.1280864      373.71912    
       358   2069.2209      2.7847715      0.80767863     4.1273858      369.65325    
Loop time of 0.00149446 on 2 procs for 1 steps with 3 atoms

run 1 pre no post no update no
   Step          Temp          E_pair         E_mol          TotEng         Press     
       358   2069.2209      2.7847715      0.80767863     4.1273858      369.65325    
       359   2660.2669      2.7732797      0.66552788     4.1265406      362.92767    
Loop time of 0.00143733 on 2 procs for 1 steps with 3 atoms

run 1 pre no post no update no
   Step          Temp          E_pair         E_mol          TotEng         Press     
       359   2660.2669      2.7732797      0.66552788     4.1265406      362.92767    
       360   3330.0281      2.7545583      0.51017612     4.1256143      352.40113    
Loop time of 0.00166648 on 2 procs for 1 steps with 3 atoms

run 1 pre yes post no update no
Per MPI rank memory allocation (min/avg/max) = 9.142 | 9.262 | 9.381 Mbytes
   Step          Temp          E_pair         E_mol          TotEng         Press     
       360   3330.0281      2.7545583      0.51017612     4.1256143      352.40113    
       361   4022.8138      2.7293541      0.35534057     4.1246737      336.86858    
Loop time of 0.00147737 on 2 procs for 1 steps with 3 atoms

run 1 pre no post no update no
   Step          Temp          E_pair         E_mol          TotEng         Press     
       361   4022.8138      2.7293541      0.35534057     4.1246737      336.86858    
       362   4682.0751      2.6984649      0.21490971     4.123786       315.18722    
Loop time of 0.00146277 on 2 procs for 1 steps with 3 atoms

run 1 pre no post no update no
   Step          Temp          E_pair         E_mol          TotEng         Press     
       362   4682.0751      2.6984649      0.21490971     4.123786       315.18722    
       363   5254.4695      2.662734       0.10189287     4.1230139      286.40121    
Loop time of 0.00142848 on 2 procs for 1 steps with 3 atoms

run 1 pre no post no update no
   Step          Temp          E_pair         E_mol          TotEng         Press     
       363   5254.4695      2.662734       0.10189287     4.1230139      286.40121    
       364   5693.6498      2.6230411      0.027445182    4.1224103      249.85577    
Loop time of 0.00141937 on 2 procs for 1 steps with 3 atoms

run 1 pre no post no update no
   Step          Temp          E_pair         E_mol          TotEng         Press     
       364   5693.6498      2.6230411      0.027445182    4.1224103      249.85577    
       365   5963.525       2.5802903      3.3587332e-05  4.1220161      205.29232    
Loop time of 0.00139125 on 2 procs for 1 steps with 3 atoms

run 1 pre no post no update no
   Step          Temp          E_pair         E_mol          TotEng         Press     
       365   5963.525       2.5802903      3.3587332e-05  4.1220161      205.29232    
       366   6040.7801      2.5353952      0.024799036    4.1218585      152.9175     
Loop time of 0.00139459 on 2 procs for 1 steps with 3 atoms

run 1 pre no post no update no
   Step          Temp          E_pair         E_mol          TotEng         Press     
       366   6040.7801      2.5353952      0.024799036    4.1218585      152.9175     
       367   5916.4897      2.4892571      0.10315706     4.1219468      93.440302    
Loop time of 0.00139919 on 2 procs for 1 steps with 3 atoms

run 1 pre no post no update no
   Step          Temp          E_pair         E_mol          TotEng         Press     
       367   5916.4897      2.4892571      0.10315706     4.1219468      93.440302    
       368   5596.7173      2.442745       0.23266295     4.1222729      28.074542    
Loop time of 0.00378236 on 2 procs for 1 steps with 3 atoms

run 1 pre no post no update no
   Step          Temp          E_pair         E_mol          TotEng         Press     
       368   5596.7173      2.442745       0.23266295     4.1222729      28.074542    
       369   5102.0607      2.3966774      0.40715026     4.1228139     -41.494675    
Loop time of 0.00300858 on 2 procs for 1 steps with 3 atoms

run 1 pre no post no update no
   Step          Temp          E_pair         E_mol          TotEng         Press     
       369   5102.0607      2.3966774      0.40715026     4.1228139     -41.494675    
       370   4466.1716      2.3518007      0.61713301     4.1235297     -113.17908    
Loop time of 0.00294202 on 2 procs for 1 steps with 3 atoms

run 1 pre yes post no update no
Per MPI rank memory allocation (min/avg/max) = 9.142 | 9.262 | 9.381 Mbytes
   Step          Temp          E_pair         E_mol          TotEng         Press     
       370   4466.1716      2.3518007      0.61713301     4.1235297     -113.17908    
       371   3733.3538      2.3087798      0.85044387     4.1243713     -184.5857     
Loop time of 0.00291071 on 2 procs for 1 steps with 3 atoms

run 1 pre no post no update no
   Step          Temp          E_pair         E_mol          TotEng         Press     
       371   3733.3538      2.3087798      0.85044387     4.1243713     -184.5857     
       372   2955.4014      2.2681908      1.0930645      4.1252866     -253.14002    
Loop time of 0.00304147 on 2 procs for 1 steps with 3 atoms

run 1 pre no post no update no
   Step          Temp          E_pair         E_mol          TotEng         Press     
       372   2955.4014      2.2681908      1.0930645      4.1252866     -253.14002    
       373   2187.8869      2.2305206      1.3300908      4.1262245     -316.22634    
Loop time of 0.00300178 on 2 procs for 1 steps with 3 atoms

run 1 pre no post no update no
   Step          Temp          E_pair         E_mol          TotEng         Press     
       373   2187.8869      2.2305206      1.3300908      4.1262245     -316.22634    
       374   1486.1602      2.1961748      1.5467649      4.1271423     -371.33582    
Loop time of 0.00286925 on 2 procs for 1 steps with 3 atoms

run 1 pre no post no update no
   Step          Temp          E_pair         E_mol          TotEng         Press     
       374   1486.1602      2.1961748      1.5467649      4.1271423     -371.33582    
       375   901.30589      2.1654898      1.7295033      4.1279989     -416.21371    
Loop time of 0.00288344 on 2 procs for 1 steps with 3 atoms

run 1 pre no post no update no
   Step          Temp          E_pair         E_mol          TotEng         Press     
       375   901.30589      2.1654898      1.7295033      4.1279989     -416.21371    
       376   476.3636       2.1387435      1.8668411      4.1287343     -448.99456    
Loop time of 0.00285859 on 2 procs for 1 steps with 3 atoms

run 1 pre no post no update no
   Step          Temp          E_pair         E_mol          TotEng         Press     
       376   476.3636       2.1387435      1.8668411      4.1287343     -448.99456    
       377   243.17842      2.1161802      1.9502224      4.1292691     -468.31355    
Loop time of 0.0028471 on 2 procs for 1 steps with 3 atoms

run 1 pre no post no update no
   Step          Temp          E_pair         E_mol          TotEng         Press     
       377   243.17842      2.1161802      1.9502224      4.1292691     -468.31355    
       378   220.18222      2.0980126      1.9745735      4.1295077     -473.38567    
Loop time of 0.00281426 on 2 procs for 1 steps with 3 atoms

run 1 pre no post no update no
   Step          Temp          E_pair         E_mol          TotEng         Press     
       378   220.18222      2.0980126      1.9745735      4.1295077     -473.38567    
       379   411.26671      2.0844387      1.9386232      4.1293826     -464.04634    
Loop time of 0.00282211 on 2 procs for 1 steps with 3 atoms

run 1 pre no post no update no
   Step          Temp          E_pair         E_mol          TotEng         Press     
       379   411.26671      2.0844387      1.9386232      4.1293826     -464.04634    
       380   805.72605      2.0756377      1.8449542      4.1288885     -440.75472    
Loop time of 0.00291378 on 2 procs for 1 steps with 3 atoms

run 1 pre yes post no update no
Per MPI rank memory allocation (min/avg/max) = 9.142 | 9.262 | 9.381 Mbytes
   Step          Temp          E_pair         E_mol          TotEng         Press     
       380   805.72605      2.0756377      1.8449542      4.1288885     -440.75472    
       381   1379.1512      2.0717633      1.699793       4.1280949     -404.56235    
Loop time of 0.00281987 on 2 procs for 1 steps with 3 atoms

run 1 pre no post no update no
   Step          Temp          E_pair         E_mol          TotEng         Press     
       381   1379.1512      2.0717633      1.699793       4.1280949     -404.56235    
       382   2095.1761      2.0729189      1.5125534      4.1271179     -357.05044    
Loop time of 0.00281783 on 2 procs for 1 steps with 3 atoms

run 1 pre no post no update no
   Step          Temp          E_pair         E_mol          TotEng         Press     
       382   2095.1761      2.0729189      1.5125534      4.1271179     -357.05044    
       383   2908.0304      2.0791312      1.2951631      4.1260792     -300.23799    
Loop time of 0.00281792 on 2 procs for 1 steps with 3 atoms

run 1 pre no post no update no
   Step          Temp          E_pair         E_mol          TotEng         Press     
       383   2908.0304      2.0791312      1.2951631      4.1260792     -300.23799    
       384   3765.8374      2.090317       1.0612111      4.1250735     -236.4639     
Loop time of 0.00295992 on 2 procs for 1 steps with 3 atoms

run 1 pre no post no update no
   Step          Temp          E_pair         E_mol          TotEng         Press     
       384   3765.8374      2.090317       1.0612111      4.1250735     -236.4639     
       385   4614.4797      2.1062561      0.82497211     4.1241649     -168.24897    
Loop time of 0.00286443 on 2 procs for 1 steps with 3 atoms

run 1 pre no post no update no
   Step          Temp          E_pair         E_mol          TotEng         Press     
       385   4614.4797      2.1062561      0.82497211     4.1241649     -168.24897    
       386   5401.7068      2.1265658      0.60037891     4.1233955     -98.148491    
Loop time of 0.00282984 on 2 procs for 1 steps with 3 atoms

run 1 pre no post no update no
   Step          Temp          E_pair         E_mol          TotEng         Press     
       386   5401.7068      2.1265658      0.60037891     4.1233955     -98.148491    
       387   6081.0955      2.1506946      0.40002297     4.1228041     -28.606885    
Loop time of 0.00304683 on 2 procs for 1 steps with 3 atoms

run 1 pre no post no update no
   Step          Temp          E_pair         E_mol          TotEng         Press     
       387   6081.0955      2.1506946      0.40002297     4.1228041     -28.606885    
       388   6615.5207      2.1779135      0.23426039     4.1224202      38.173115    
Loop time of 0.00305378 on 2 procs for 1 steps with 3 atoms

run 1 pre no post no update no
   Step          Temp          E_pair         E_mol          TotEng         Press     
       388   6615.5207      2.1779135      0.23426039     4.1224202      38.173115    
       389   6979.8809      2.2073412      0.11049044     4.1222724      100.33932    
Loop time of 0.00289031 on 2 procs for 1 steps with 3 atoms

run 1 pre no post no update no
   Step          Temp          E_pair         E_mol          TotEng         Press     
       389   6979.8809      2.2073412      0.11049044     4.1222724      100.33932    
       390   7162.9042      2.2379536      0.032659387    4.122369       156.46861    
Loop time of 0.00298822 on 2 procs for 1 steps with 3 atoms

run 1 pre yes post no update no
Per MPI rank memory allocation (min/avg/max) = 9.142 | 9.262 | 9.381 Mbytes
   Step          Temp          E_pair         E_mol          TotEng         Press     
       390   7162.9042      2.2379536      0.032659387    4.122369       156.46861    
       391   7167.9102      2.2686276      0.0010272255   4.1227051      205.61245    
Loop time of 0.00279383 on 2 procs for 1 steps with 3 atoms

run 1 pre no post no update no
   Step          Temp          E_pair         E_mol          TotEng         Press     
       391   7167.9102      2.2686276      0.0010272255   4.1227051      205.61245    
       392   7012.4651      2.2981745      0.01221745     4.1232565      247.30555    
Loop time of 0.00280194 on 2 procs for 1 steps with 3 atoms

run 1 pre no post no update no
   Step          Temp          E_pair         E_mol          TotEng         Press     
       392   7012.4651      2.2981745      0.01221745     4.1232565      247.30555    
       393   6726.9338      2.3253819      0.059552009    4.1239828      281.53826    
Loop time of 0.00289318 on 2 procs for 1 steps with 3 atoms

run 1 pre no post no update no
   Step          Temp          E_pair         E_mol          TotEng         Press     
       393   6726.9338      2.3253819      0.059552009    4.1239828      281.53826    
       394   6352.0061      2.349049       0.13365429     4.1248258      308.69448    
Loop time of 0.0028262 on 2 procs for 1 steps with 3 atoms

run 1 pre no post no update no
   Step          Temp          E_pair         E_mol          TotEng         Press     
       394   6352.0061      2.349049       0.13365429     4.1248258      308.69448    
       395   5935.3489      2.3680265      0.22328348     4.1257181      329.46044    
Loop time of 0.00293607 on 2 procs for 1 steps with 3 atoms

run 1 pre no post no update no
   Step          Temp          E_pair         E_mol          TotEng         Press     
       395   5935.3489      2.3680265      0.22328348     4.1257181      329.46044    
       396   5527.6049      2.3812435      0.31634409     4.1265856      344.71105    
Loop time of 0.00287384 on 2 procs for 1 steps with 3 atoms

run 1 pre no post no update no
   Step          Temp          E_pair         E_mol          TotEng         Press     
       396   5527.6049      2.3812435      0.31634409     4.1265856      344.71105    
       397   5178.0306      2.38773        0.4009955      4.1273515      355.38324    
Loop time of 0.00293489 on 2 procs for 1 steps with 3 atoms

run 1 pre no post no update no
   Step          Temp          E_pair         E_mol          TotEng         Press     
       397   5178.0306      2.38773        0.4009955      4.1273515      355.38324    
       398   4930.1224      2.3866407      0.46676994     4.1279474      362.34823    
Loop time of 0.00290245 on 2 procs for 1 steps with 3 atoms

run 1 pre no post no update no
   Step          Temp          E_pair         E_mol          TotEng         Press     
       398   4930.1224      2.3866407      0.46676994     4.1279474      362.34823    
       399   4817.6224      2.377265       0.50559609     4.1283143      366.29397    
Loop time of 0.00287212 on 2 procs for 1 steps with 3 atoms

run 1 pre no post no update no
   Step          Temp          E_pair         E_mol          TotEng         Press     
       399   4817.6224      2.377265       0.50559609     4.1283143      366.29397    
       400   4861.2969      2.3590483      0.51262385     4.128416       367.63145    
Loop time of 0.00289626 on 2 procs for 1 steps with 3 atoms

run 1 pre yes post no update no
Per MPI rank memory allocation (min/avg/max) = 9.142 | 9.262 | 9.381 Mbytes
   Step          Temp          E_pair         E_mol          TotEng         Press     
       400   4861.2969      2.3590483      0.51262385     4.128416       367.63145    
       401   5066.8348      2.3316027      0.48675828     4.1282406      366.43428    
Loop time of 0.00286344 on 2 procs for 1 steps with 3 atoms

run 1 pre no post no update no
   Step          Temp          E_pair         E_mol          TotEng         Press     
       401   5066.8348      2.3316027      0.48675828     4.1282406      366.43428    
       402   5424.1072      2.2947189      0.43083763     4.1277983      362.41978    
Loop time of 0.0027863 on 2 procs for 1 steps with 3 atoms

run 1 pre no post no update no
   Step          Temp          E_pair         E_mol          TotEng         Press     
       402   5424.1072      2.2947189      0.43083763     4.1277983      362.41978    
       403   5907.8813      2.2483903      0.35143014     4.1271276      354.97449    
Loop time of 0.00285676 on 2 procs for 1 steps with 3 atoms

run 1 pre no post no update no
   Step          Temp          E_pair         E_mol          TotEng         Press     
       403   5907.8813      2.2483903      0.35143014     4.1271276      354.97449    
       404   6479.9104      2.1928275      0.25826923     4.1262851      343.2212     
Loop time of 0.00287354 on 2 procs for 1 steps with 3 atoms

run 1 pre no post no update no
   Step          Temp          E_pair         E_mol          TotEng         Press     
       404   6479.9104      2.1928275      0.25826923     4.1262851      343.2212     
       405   7092.1708      2.1284834      0.16338779     4.1253413      326.12104    
Loop time of 0.00288826 on 2 procs for 1 steps with 3 atoms

run 1 pre no post no update no
   Step          Temp          E_pair         E_mol          TotEng         Press     
       405   7092.1708      2.1284834      0.16338779     4.1253413      326.12104    
       406   7690.9024      2.0560761      0.08004179     4.1243722      302.5995     
Loop time of 0.00384409 on 2 procs for 1 steps with 3 atoms

run 1 pre no post no update no
   Step          Temp          E_pair         E_mol          TotEng         Press     
       406   7690.9024      2.0560761      0.08004179     4.1243722      302.5995     
       407   8221.0636      1.976617       0.021528222    4.123457       271.68414    
Loop time of 0.00316755 on 2 procs for 1 steps with 3 atoms

run 1 pre no post no update no
   Step          Temp          E_pair         E_mol          TotEng         Press     
       407   8221.0636      1.976617       0.021528222    4.123457       271.68414    
       408   8630.8144      1.8914215      2.7867193e-06  4.1226649      232.63994    
Loop time of 0.00282748 on 2 procs for 1 steps with 3 atoms

run 1 pre no post no update no
   Step          Temp          E_pair         E_mol          TotEng         Press     
       408   8630.8144      1.8914215      2.7867193e-06  4.1226649      232.63994    
       409   8875.6959      1.8021222      0.025392875    4.1220626      185.09096    
Loop time of 0.00286789 on 2 procs for 1 steps with 3 atoms

run 1 pre no post no update no
   Step          Temp          E_pair         E_mol          TotEng         Press     
       409   8875.6959      1.8021222      0.025392875    4.1220626      185.09096    
       410   8922.3235      1.7106441      0.10448587     4.1217316      129.11734    
Loop time of 0.00283517 on 2 procs for 1 steps with 3 atoms

run 1 pre yes post no update no
Per MPI rank memory allocation (min/avg/max) = 9.142 | 9.262 | 9.381 Mbytes
   Step          Temp          E_pair         E_mol          TotEng         Press     
       410   8922.3235      1.7106441      0.10448587     4.1217316      129.11734    
       411   8751.8114      1.6191678      0.24025791     4.1219465      65.3259      
Loop time of 0.00273972 on 2 procs for 1 steps with 3 atoms

run 1 pre no post no update no
   Step          Temp          E_pair         E_mol          TotEng         Press     
       411   8751.8114      1.6191678      0.24025791     4.1219465      65.3259      
       412   8363.9437      1.530022       0.43151125     4.1237824     -5.0993685    
Loop time of 0.00287622 on 2 procs for 1 steps with 3 atoms

run 1 pre no post no update no
   Step          Temp          E_pair         E_mol          TotEng         Press     
       412   8363.9437      1.530022       0.43151125     4.1237824     -5.0993685    
       413   7782.9506      1.4454995      0.67295394     4.1305041     -80.371154    
Loop time of 0.00286183 on 2 procs for 1 steps with 3 atoms

run 1 pre no post no update no
   Step          Temp          E_pair         E_mol          TotEng         Press     
       413   7782.9506      1.4454995      0.67295394     4.1305041     -80.371154    
       414   7061.4767      1.3675513      0.95599233     4.1490786     -158.18536    
Loop time of 0.00293401 on 2 procs for 1 steps with 3 atoms

run 1 pre no post no update no
   Step          Temp          E_pair         E_mol          TotEng         Press     
       414   7061.4767      1.3675513      0.95599233     4.1490786     -158.18536    
       415   6273.6669      1.2973692      1.2704789      4.1897183     -236.07521    
Loop time of 0.00292268 on 2 procs for 1 steps with 3 atoms

run 1 pre no post no update no
   Step          Temp          E_pair         E_mol          TotEng         Press     
       415   6273.6669      1.2973692      1.2704789      4.1897183     -236.07521    
       416   5493.9169      1.2350442      1.6070892      4.2624225     -312.00125    
Loop time of 0.00300519 on 2 procs for 1 steps with 3 atoms

run 1 pre no post no update no
   Step          Temp          E_pair         E_mol          TotEng         Press     
       416   5493.9169      1.2350442      1.6070892      4.2624225     -312.00125    
       417   4774.5779      1.1795705      1.9592266      4.3731224     -384.80269    
Loop time of 0.00295353 on 2 procs for 1 steps with 3 atoms

run 1 pre no post no update no
   Step          Temp          E_pair         E_mol          TotEng         Press     
       417   4774.5779      1.1795705      1.9592266      4.3731224     -384.80269    
       418   4140.2898      1.1292267      2.3234469      4.5230226     -454.15245    
Loop time of 0.00292193 on 2 procs for 1 steps with 3 atoms

run 1 pre no post no update no
   Step          Temp          E_pair         E_mol          TotEng         Press     
       418   4140.2898      1.1292267      2.3234469      4.5230226     -454.15245    
       419   3600.8416      1.0821075      2.6986199      4.711618      -520.10036    
Loop time of 0.00297539 on 2 procs for 1 steps with 3 atoms

run 1 pre no post no update no
   Step          Temp          E_pair         E_mol          TotEng         Press     
       419   3600.8416      1.0821075      2.6986199      4.711618      -520.10036    
       420   3169.6281      1.0364765      3.0851875      4.9410772     -582.62027    
Loop time of 0.00273738 on 2 procs for 1 steps with 3 atoms

run 0 pre yes post no
PPPM initialization ...
  using 12-bit tables for long-range coulomb (src/kspace.cpp:342)
  G vector (1/distance) = 0.28934131
  grid = 18 18 18
  stencil order = 5
  estimated absolute RMS force accuracy = 7.7110449e-05
  estimated relative force accuracy = 5.3550243e-06
  using double precision KISS FFT
  3d grid and FFT values/proc = 10000 2916
Generated 0 of 21 mixed pair_coeff terms from geometric mixing rule
Per MPI rank memory allocation (min/avg/max) = 9.142 | 9.262 | 9.381 Mbytes
   Step          Temp          E_pair         E_mol          TotEng         Press     
       420   3169.6281      1.0364765      3.0851875      4.9410772     -582.62027    
Loop time of 1.879e-06 on 2 procs for 0 steps with 3 atoms

run 0 pre yes post no
PPPM initialization ...
  using 12-bit tables for long-range coulomb (src/kspace.cpp:342)
  G vector (1/distance) = 0.28934131
  grid = 18 18 18
  stencil order = 5
  estimated absolute RMS force accuracy = 7.7110449e-05
  estimated relative force accuracy = 5.3550243e-06
  using double precision KISS FFT
  3d grid and FFT values/proc = 10000 2916
Generated 0 of 21 mixed pair_coeff terms from geometric mixing rule
Per MPI rank memory allocation (min/avg/max) = 9.142 | 9.262 | 9.381 Mbytes
   Step          Temp          E_pair         E_mol          TotEng         Press     
       420   3169.6281      1.0364765      3.0851875      4.9410772     -582.62027    
Loop time of 2.1435e-06 on 2 procs for 0 steps with 3 atoms

clear
OMP_NUM_THREADS environment is not set. Defaulting to 1 thread. (src/comm.cpp:98)
  using 1 OpenMP thread(s) per MPI task
units metal
atom_style full
boundary p p p
read_data /tmp/mustard.13e25e9621594b2cbe116fd2c800b3e6
Reading data file ...
  triclinic box = (0 0 0) to (25.319 25.319 25.319) with tilt (0 0 0)
  1 by 1 by 2 MPI processor grid
  reading atoms ...
  3 atoms
  reading velocities ...
  3 velocities
  scanning bonds ...
  1 = max bonds/atom
  reading bonds ...
  1 bonds
Finding 1-2 1-3 1-4 neighbors ...
  special bond factors lj:    0        0        0       
  special bond factors coul:  0        0        0       
     1 = max # of 1-2 neighbors
     0 = max # of 1-3 neighbors
     0 = max # of 1-4 neighbors
     1 = max # of special neighbors
  special bonds CPU = 0.000 seconds
  read_data CPU = 0.001 seconds

change_box all triclinic
Changing box ...
  triclinic box = (0 0 0) to (25.319 25.319 25.319) with tilt (0 0 0)
include ff.lmp
##############################################################################################
#### Atoms' types - mass - charge
##############################################################################################
#@ 7   atom types

variable Ba  equal 1
variable Zr  equal 2
variable  Y  equal 3
variable O1  equal 4
variable O2  equal 5
variable O3  equal 6
variable H1  equal 7

##############################################################################################
#### Atoms' masses
##############################################################################################

mass  ${Ba}   137.327
mass  1   137.327
mass  ${Zr}    91.224
mass  2    91.224
mass  ${Y}     88.910
mass  3     88.910
mass  ${O1}    100000
mass  4    100000
# mass  ${O1}    15.996
mass  ${O2}    100000
mass  5    100000
# mass  ${O2}    15.996
mass  ${O3}    15.996
mass  6    15.996
mass  ${H1}     1.008
mass  7     1.008

##############################################################################################
#### Atoms' charges
##############################################################################################

set type ${Ba}  charge     2.000000
set type 1  charge     2.000000
Setting atom values ...
  0 settings made for charge
set type ${Zr}  charge     4.000000
set type 2  charge     4.000000
Setting atom values ...
  0 settings made for charge
set type ${Y}   charge     3.000000
set type 3   charge     3.000000
Setting atom values ...
  0 settings made for charge
set type ${O1}  charge    -1.308698
set type 4  charge    -1.308698
Setting atom values ...
  1 settings made for charge
set type ${O2}  charge    -2.000000
set type 5  charge    -2.000000
Setting atom values ...
  1 settings made for charge
set type ${O3}  charge    -2.000000
set type 6  charge    -2.000000
Setting atom values ...
  0 settings made for charge
set type ${H1}  charge     0.308698
set type 7  charge     0.308698
Setting atom values ...
  1 settings made for charge

##############################################################################################
#### Covalent bonds parameters
##############################################################################################
#@  1   bond types

bond_style harmonic
#@ O1 - H1
# bond_coeff   1      11.504000      0.985357
bond_coeff   1      23.008000      0.985357

##############################################################################################
# Pair potentials
##############################################################################################

variable rmin  equal  8.
variable rmax  equal 10.

pair_style hybrid/overlay buck/mdf ${rmin} ${rmax} lennard/mdf ${rmin} ${rmax} coul/long ${rmax}
pair_style hybrid/overlay buck/mdf 8 ${rmax} lennard/mdf ${rmin} ${rmax} coul/long ${rmax}
pair_style hybrid/overlay buck/mdf 8 10 lennard/mdf ${rmin} ${rmax} coul/long ${rmax}
pair_style hybrid/overlay buck/mdf 8 10 lennard/mdf 8 ${rmax} coul/long ${rmax}
pair_style hybrid/overlay buck/mdf 8 10 lennard/mdf 8 10 coul/long ${rmax}
pair_style hybrid/overlay buck/mdf 8 10 lennard/mdf 8 10 coul/long 10

##############################################################################################
# Buckingham interaction potentials
pair_coeff  ${Ba}  ${O1}  buck/mdf   688.21662   0.392014   0.000
pair_coeff  1  ${O1}  buck/mdf   688.21662   0.392014   0.000
pair_coeff  1  4  buck/mdf   688.21662   0.392014   0.000
pair_coeff  ${Ba}  ${O2}  buck/mdf   972.19945   0.392014   0.000
pair_coeff  1  ${O2}  buck/mdf   972.19945   0.392014   0.000
pair_coeff  1  5  buck/mdf   972.19945   0.392014   0.000
pair_coeff  ${Ba}  ${O3}  buck/mdf   972.19945   0.392014   0.000
pair_coeff  1  ${O3}  buck/mdf   972.19945   0.392014   0.000
pair_coeff  1  6  buck/mdf   972.19945   0.392014   0.000

pair_coeff  ${Y}   ${O1}  buck/mdf   2972.3808   0.267317   0.000
pair_coeff  3   ${O1}  buck/mdf   2972.3808   0.267317   0.000
pair_coeff  3   4  buck/mdf   2972.3808   0.267317   0.000
pair_coeff  ${Y}   ${O2}  buck/mdf   4121.8373   0.280386   0.000
pair_coeff  3   ${O2}  buck/mdf   4121.8373   0.280386   0.000
pair_coeff  3   5  buck/mdf   4121.8373   0.280386   0.000
pair_coeff  ${Y}   ${O3}  buck/mdf   4121.8373   0.280386   0.000
pair_coeff  3   ${O3}  buck/mdf   4121.8373   0.280386   0.000
pair_coeff  3   6  buck/mdf   4121.8373   0.280386   0.000

pair_coeff  ${Zr}  ${O1}  buck/mdf   2195.8712   0.298760   0.000
pair_coeff  2  ${O1}  buck/mdf   2195.8712   0.298760   0.000
pair_coeff  2  4  buck/mdf   2195.8712   0.298760   0.000
pair_coeff  ${Zr}  ${O2}  buck/mdf   3250.8545   0.298760   0.000
pair_coeff  2  ${O2}  buck/mdf   3250.8545   0.298760   0.000
pair_coeff  2  5  buck/mdf   3250.8545   0.298760   0.000
pair_coeff  ${Zr}  ${O3}  buck/mdf   3250.8545   0.298760   0.000
pair_coeff  2  ${O3}  buck/mdf   3250.8545   0.298760   0.000
pair_coeff  2  6  buck/mdf   3250.8545   0.298760   0.000

pair_coeff  ${O1}  ${O1}  buck/mdf   22764.000   0.149000   0.000
pair_coeff  4  ${O1}  buck/mdf   22764.000   0.149000   0.000
pair_coeff  4  4  buck/mdf   22764.000   0.149000   0.000
pair_coeff  ${O1}  ${O2}  buck/mdf   22764.000   0.149000   0.000
pair_coeff  4  ${O2}  buck/mdf   22764.000   0.149000   0.000
pair_coeff  4  5  buck/mdf   22764.000   0.149000   0.000
pair_coeff  ${O1}  ${O3}  buck/mdf   22764.000   0.149000   0.000
pair_coeff  4  ${O3}  buck/mdf   22764.000   0.149000   0.000
pair_coeff  4  6  buck/mdf   22764.000   0.149000   0.000

pair_coeff  ${O2}  ${O2}  buck/mdf   22764.000   0.149000   0.000
pair_coeff  5  ${O2}  buck/mdf   22764.000   0.149000   0.000
pair_coeff  5  5  buck/mdf   22764.000   0.149000   0.000
pair_coeff  ${O2}  ${O3}  buck/mdf   22764.000   0.149000   0.000
pair_coeff  5  ${O3}  buck/mdf   22764.000   0.149000   0.000
pair_coeff  5  6  buck/mdf   22764.000   0.149000   0.000

pair_coeff  ${O3}  ${O3}  buck/mdf   22764.000   0.149000   0.000
pair_coeff  6  ${O3}  buck/mdf   22764.000   0.149000   0.000
pair_coeff  6  6  buck/mdf   22764.000   0.149000   0.000

##############################################################################################
# 12-6 Lennard-Jones potentials
pair_coeff  ${O1}  ${H1}  lennard/mdf    6.391   0.000
pair_coeff  4  ${H1}  lennard/mdf    6.391   0.000
pair_coeff  4  7  lennard/mdf    6.391   0.000
pair_coeff  ${O2}  ${H1}  lennard/mdf    6.391   0.000
pair_coeff  5  ${H1}  lennard/mdf    6.391   0.000
pair_coeff  5  7  lennard/mdf    6.391   0.000
pair_coeff  ${O3}  ${H1}  lennard/mdf    7.800   0.000
pair_coeff  6  ${H1}  lennard/mdf    7.800   0.000
pair_coeff  6  7  lennard/mdf    7.800   0.000

##############################################################################################
# Coulombic interaction
pair_coeff      *      *  coul/long

#########################################################################################################
# Parameters for reciprocal space electrostatics
#########################################################################################################

kspace_style pppm 1.0e-5
kspace_modify fftbench no
fix md all nve
timestep 0.0002

change_box all x final 0.0 25.319 y final 0.0 25.319 z final 0.0 25.319 xy final 0.0 xz final 0.0 yz final 0.0
Changing box ...
  triclinic box = (0 0 0) to (25.319 25.319 25.319) with tilt (0 0 0)
  triclinic box = (0 0 0) to (25.319 25.319 25.319) with tilt (0 0 0)
  triclinic box = (0 0 0) to (25.319 25.319 25.319) with tilt (0 0 0)
  triclinic box = (0 0 0) to (25.319 25.319 25.319) with tilt (0 0 0)
  triclinic box = (0 0 0) to (25.319 25.319 25.319) with tilt (0 0 0)
  triclinic box = (0 0 0) to (25.319 25.319 25.319) with tilt (0 0 0)
reset_timestep 420
fix ux all store/state 1 xu yu zu
fix ext all external pf/callback 1 1
fix_modify ext energy no
fix_modify ext virial no
compute get_pe all pe

run 0 pre yes post no
PPPM initialization ...
WARNING: System is not charge neutral, net charge = -3 (src/kspace.cpp:327)
  using 12-bit tables for long-range coulomb (src/kspace.cpp:342)
  G vector (1/distance) = 0.28934131
  grid = 18 18 18
  stencil order = 5
  estimated absolute RMS force accuracy = 7.7110449e-05
  estimated relative force accuracy = 5.3550243e-06
  using double precision KISS FFT
  3d grid and FFT values/proc = 10000 2916
Generated 0 of 21 mixed pair_coeff terms from geometric mixing rule
Neighbor list info ...
  update: every = 1 steps, delay = 0 steps, check = yes
  max neighbors/atom: 2000, page size: 100000
  master list distance cutoff = 12
  ghost atom cutoff = 12
  binsize = 6, bins = 5 5 5
  3 neighbor lists, perpetual/occasional/extra = 3 0 0
  (1) pair buck/mdf, perpetual, skip from (3)
      attributes: half, newton on
      pair build: skip
      stencil: none
      bin: none
  (2) pair lennard/mdf, perpetual, skip from (3)
      attributes: half, newton on
      pair build: skip
      stencil: none
      bin: none
  (3) pair coul/long, perpetual
      attributes: half, newton on
      pair build: half/bin/newton/tri
      stencil: half/bin/3d/tri
      bin: standard
Per MPI rank memory allocation (min/avg/max) = 9.142 | 9.262 | 9.381 Mbytes
   Step          Temp          E_pair         E_mol          TotEng         Press     
       420   3362.6774      1.0426319      3.0540834      4.9660356     -575.35547    
Loop time of 2.414e-06 on 2 procs for 0 steps with 3 atoms

run 0 pre yes post no
PPPM initialization ...
  using 12-bit tables for long-range coulomb (src/kspace.cpp:342)
  G vector (1/distance) = 0.28934131
  grid = 18 18 18
  stencil order = 5
  estimated absolute RMS force accuracy = 7.7110449e-05
  estimated relative force accuracy = 5.3550243e-06
  using double precision KISS FFT
  3d grid and FFT values/proc = 10000 2916
Generated 0 of 21 mixed pair_coeff terms from geometric mixing rule
Per MPI rank memory allocation (min/avg/max) = 9.142 | 9.262 | 9.381 Mbytes
   Step          Temp          E_pair         E_mol          TotEng         Press     
       420   3362.6774      1.0426319      3.0540834      4.9660356     -575.35547    
Loop time of 2.204e-06 on 2 procs for 0 steps with 3 atoms

run 1 pre yes post no update no
Per MPI rank memory allocation (min/avg/max) = 9.142 | 9.262 | 9.381 Mbytes
   Step          Temp          E_pair         E_mol          TotEng         Press     
       420   3169.6281      1.0426319      3.0540834      4.9161284     -578.63977    
       421   2873.9522      1.1212054      2.8246285      4.6888089     -556.59938    
Loop time of 0.00293515 on 2 procs for 1 steps with 3 atoms

run 1 pre no post no update no
   Step          Temp          E_pair         E_mol          TotEng         Press     
       421   2873.9522      1.1212054      2.8246285      4.6888089     -556.59938    
       422   2751.4205      1.2014856      2.5878611      4.5006447     -527.18114    
Loop time of 0.00291169 on 2 procs for 1 steps with 3 atoms

run 1 pre no post no update no
   Step          Temp          E_pair         E_mol          TotEng         Press     
       422   2751.4205      1.2014856      2.5878611      4.5006447     -527.18114    
       423   2836.2625      1.2843214      2.3363234      4.3538762     -488.97815    
Loop time of 0.0028059 on 2 procs for 1 steps with 3 atoms

run 1 pre no post no update no
   Step          Temp          E_pair         E_mol          TotEng         Press     
       423   2836.2625      1.2843214      2.3363234      4.3538762     -488.97815    
       424   3143.3609      1.3710622      2.0652613      4.248946      -440.87983    
Loop time of 0.00278725 on 2 procs for 1 steps with 3 atoms

run 1 pre no post no update no
   Step          Temp          E_pair         E_mol          TotEng         Press     
       424   3143.3609      1.3710622      2.0652613      4.248946      -440.87983    
       425   3655.3987      1.4628468      1.7746376      4.1824792     -382.6775     
Loop time of 0.00283492 on 2 procs for 1 steps with 3 atoms

run 1 pre no post no update no
   Step          Temp          E_pair         E_mol          TotEng         Press     
       425   3655.3987      1.4628468      1.7746376      4.1824792     -382.6775     
       426   4318.1993      1.5600871      1.4701874      4.1466166     -315.43591    
Loop time of 0.00277431 on 2 procs for 1 steps with 3 atoms

run 1 pre no post no update no
   Step          Temp          E_pair         E_mol          TotEng         Press     
       426   4318.1993      1.5600871      1.4701874      4.1466166     -315.43591    
       427   5050.1453      1.6622778      1.1628543      4.1306971     -241.41429    
Loop time of 0.00286129 on 2 procs for 1 steps with 3 atoms

run 1 pre no post no update no
   Step          Temp          E_pair         E_mol          TotEng         Press     
       427   5050.1453      1.6622778      1.1628543      4.1306971     -241.41429    
       428   5763.2719      1.7681573      0.86681116     4.1248912     -163.56321    
Loop time of 0.00290717 on 2 procs for 1 steps with 3 atoms

run 1 pre no post no update no
   Step          Temp          E_pair         E_mol          TotEng         Press     
       428   5763.2719      1.7681573      0.86681116     4.1248912     -163.56321    
       429   6382.1832      1.8760584      0.59697022     4.1229525     -84.932494    
Loop time of 0.00284108 on 2 procs for 1 steps with 3 atoms

run 1 pre no post no update no
   Step          Temp          E_pair         E_mol          TotEng         Press     
       429   6382.1832      1.8760584      0.59697022     4.1229525     -84.932494    
       430   6850.6886      1.9842179      0.36691478     4.1221747     -8.3046943    
Loop time of 0.00280824 on 2 procs for 1 steps with 3 atoms

run 1 pre yes post no update no
Per MPI rank memory allocation (min/avg/max) = 9.142 | 9.262 | 9.381 Mbytes
   Step          Temp          E_pair         E_mol          TotEng         Press     
       430   6850.6886      1.9842179      0.36691478     4.1221747     -8.3046943    
       431   7130.0649      2.0909657      0.18755487     4.1217871      63.943165    
Loop time of 0.00332867 on 2 procs for 1 steps with 3 atoms

run 1 pre no post no update no
   Step          Temp          E_pair         E_mol          TotEng         Press     
       431   7130.0649      2.0909657      0.18755487     4.1217871      63.943165    
       432   7196.8796      2.1947915      0.06632518     4.1216561      129.89706    
Loop time of 0.00339874 on 2 procs for 1 steps with 3 atoms

run 1 pre no post no update no
   Step          Temp          E_pair         E_mol          TotEng         Press     
       432   7196.8796      2.1947915      0.06632518     4.1216561      129.89706    
       433   7042.6594      2.294368       0.0067317252   4.1217701      188.15453    
Loop time of 0.00365781 on 2 procs for 1 steps with 3 atoms

run 1 pre no post no update no
   Step          Temp          E_pair         E_mol          TotEng         Press     
       433   7042.6594      2.294368       0.0067317252   4.1217701      188.15453    
       434   6674.0594      2.3885591      0.0081827868   4.1221217      237.85675    
Loop time of 0.00350875 on 2 procs for 1 steps with 3 atoms

run 1 pre no post no update no
   Step          Temp          E_pair         E_mol          TotEng         Press     
       434   6674.0594      2.3885591      0.0081827868   4.1221217      237.85675    
       435   6112.4035      2.4764126      0.066096672    4.1226896      278.68902    
Loop time of 0.00359408 on 2 procs for 1 steps with 3 atoms

run 1 pre no post no update no
   Step          Temp          E_pair         E_mol          TotEng         Press     
       435   6112.4035      2.4764126      0.066096672    4.1226896      278.68902    
       436   5392.2766      2.5571438      0.17227705     4.1234338      310.8459     
Loop time of 0.00361028 on 2 procs for 1 steps with 3 atoms

run 1 pre no post no update no
   Step          Temp          E_pair         E_mol          TotEng         Press     
       436   5392.2766      2.5571438      0.17227705     4.1234338      310.8459     
       437   4559.2052      2.6301284      0.31553053     4.124306       334.96441    
Loop time of 0.00172202 on 2 procs for 1 steps with 3 atoms

run 1 pre no post no update no
   Step          Temp          E_pair         E_mol          TotEng         Press     
       437   4559.2052      2.6301284      0.31553053     4.124306       334.96441    
       438   3666.574       2.6948782      0.48248428     4.1252463      352.02973    
Loop time of 0.00155431 on 2 procs for 1 steps with 3 atoms

run 1 pre no post no update no
   Step          Temp          E_pair         E_mol          TotEng         Press     
       438   3666.574       2.6948782      0.48248428     4.1252463      352.02973    
       439   2771.9906      2.7510275      0.65854728     4.1261906      363.26155    
Loop time of 0.0016237 on 2 procs for 1 steps with 3 atoms

run 1 pre no post no update no
   Step          Temp          E_pair         E_mol          TotEng         Press     
       439   2771.9906      2.7510275      0.65854728     4.1261906      363.26155    
       440   1933.3517      2.7983159      0.82894845     4.127075       369.98908    
Loop time of 0.00150356 on 2 procs for 1 steps with 3 atoms

run 1 pre yes post no update no
Per MPI rank memory allocation (min/avg/max) = 9.142 | 9.262 | 9.381 Mbytes
   Step          Temp          E_pair         E_mol          TotEng         Press     
       440   1933.3517      2.7983159      0.82894845     4.127075       369.98908    
       441   1204.8845      2.8365723      0.97977961     4.127839       373.52419    
Loop time of 0.00152655 on 2 procs for 1 steps with 3 atoms

run 1 pre no post no update no
   Step          Temp          E_pair         E_mol          TotEng         Press     
       441   1204.8845      2.8365723      0.97977961     4.127839       373.52419    
       442   633.44212      2.8657023      1.0989704      4.1284304      375.0418     
Loop time of 0.0015553 on 2 procs for 1 steps with 3 atoms

run 1 pre no post no update no
   Step          Temp          E_pair         E_mol          TotEng         Press     
       442   633.44212      2.8657023      1.0989704      4.1284304      375.0418     
       443   255.30969      2.8856786      1.1771281      4.1288095      375.47637    
Loop time of 0.00150545 on 2 procs for 1 steps with 3 atoms

run 1 pre no post no update no
   Step          Temp          E_pair         E_mol          TotEng         Press     
       443   255.30969      2.8856786      1.1771281      4.1288095      375.47637    
       444   93.745019      2.8965321      1.2081837      4.1289508      375.44171    
Loop time of 0.0015326 on 2 procs for 1 steps with 3 atoms

run 1 pre no post no update no
   Step          Temp          E_pair         E_mol          TotEng         Press     
       444   93.745019      2.8965321      1.2081837      4.1289508      375.44171    
       445   157.41946      2.8983472      1.1898018      4.1288452      375.17985    
Loop time of 0.00149915 on 2 procs for 1 steps with 3 atoms

run 1 pre no post no update no
   Step          Temp          E_pair         E_mol          TotEng         Press     
       445   157.41946      2.8983472      1.1898018      4.1288452      375.17985    
       446   439.86382      2.8912614      1.1235267      4.1285018      374.54262    
Loop time of 0.00158286 on 2 procs for 1 steps with 3 atoms

run 1 pre no post no update no
   Step          Temp          E_pair         E_mol          TotEng         Press     
       446   439.86382      2.8912614      1.1235267      4.1285018      374.54262    
       447   919.95205      2.8754622      1.0146558      4.1279443      373.00658    
Loop time of 0.00150706 on 2 procs for 1 steps with 3 atoms

run 1 pre no post no update no
   Step          Temp          E_pair         E_mol          TotEng         Press     
       447   919.95205      2.8754622      1.0146558      4.1279443      373.00658    
       448   1563.3848      2.8511926      0.87185227     4.1272116      369.72084    
Loop time of 0.00140089 on 2 procs for 1 steps with 3 atoms

run 1 pre no post no update no
   Step          Temp          E_pair         E_mol          TotEng         Press     
       448   1563.3848      2.8511926      0.87185227     4.1272116      369.72084    
       449   2325.0682      2.8187546      0.70652201     4.1263539      363.58337    
Loop time of 0.00145397 on 2 procs for 1 steps with 3 atoms

run 1 pre no post no update no
   Step          Temp          E_pair         E_mol          TotEng         Press     
       449   2325.0682      2.8187546      0.70652201     4.1263539      363.58337    
       450   3152.2229      2.7785169      0.53200063     4.1254311      353.34096    
Loop time of 0.00146053 on 2 procs for 1 steps with 3 atoms

run 1 pre yes post no update no
Per MPI rank memory allocation (min/avg/max) = 9.142 | 9.262 | 9.381 Mbytes
   Step          Temp          E_pair         E_mol          TotEng         Press     
       450   3152.2229      2.7785169      0.53200063     4.1254311      353.34096    
       451   3988.0125      2.7309191      0.3626046      4.1245058      337.70491    
Loop time of 0.00138545 on 2 procs for 1 steps with 3 atoms

run 1 pre no post no update no
   Step          Temp          E_pair         E_mol          TotEng         Press     
       451   3988.0125      2.7309191      0.3626046      4.1245058      337.70491    
       452   4775.4428      2.6764806      0.21261217     4.1236416      315.47478    
Loop time of 0.00143716 on 2 procs for 1 steps with 3 atoms

run 1 pre no post no update no
   Step          Temp          E_pair         E_mol          TotEng         Press     
       452   4775.4428      2.6764806      0.21261217     4.1236416      315.47478    
       453   5461.2689      2.6158058      0.095243449    4.1228981      285.66067    
Loop time of 0.00149304 on 2 procs for 1 steps with 3 atoms

run 1 pre no post no update no
   Step          Temp          E_pair         E_mol          TotEng         Press     
       453   5461.2689      2.6158058      0.095243449    4.1228981      285.66067    
       454   5999.6437      2.5495861      0.02170979     4.1223256      247.5951     
Loop time of 0.00145014 on 2 procs for 1 steps with 3 atoms

run 1 pre no post no update no
   Step          Temp          E_pair         E_mol          TotEng         Press     
       454   5999.6437      2.5495861      0.02170979     4.1223256      247.5951     
       455   6355.2582      2.4786027      0.00039788648  4.1219637      201.02635    
Loop time of 0.00146696 on 2 procs for 1 steps with 3 atoms

run 1 pre no post no update no
   Step          Temp          E_pair         E_mol          TotEng         Press     
       455   6355.2582      2.4786027      0.00039788648  4.1219637      201.02635    
       456   6505.7617      2.4037208      0.036245109    4.1218373      146.18567    
Loop time of 0.00360106 on 2 procs for 1 steps with 3 atoms

run 1 pre no post no update no
   Step          Temp          E_pair         E_mol          TotEng         Press     
       456   6505.7617      2.4037208      0.036245109    4.1218373      146.18567    
       457   6443.2915      2.3258834      0.13034979     4.1219548      83.822845    
Loop time of 0.00289598 on 2 procs for 1 steps with 3 atoms

run 1 pre no post no update no
   Step          Temp          E_pair         E_mol          TotEng         Press     
       457   6443.2915      2.3258834      0.13034979     4.1219548      83.822845    
       458   6175.0113      2.2460979      0.27984415     4.1223078      15.206905    
Loop time of 0.00284349 on 2 procs for 1 steps with 3 atoms

run 1 pre no post no update no
   Step          Temp          E_pair         E_mol          TotEng         Press     
       458   6175.0113      2.2460979      0.27984415     4.1223078      15.206905    
       459   5722.6244      2.1654233      0.47803957     4.1228774     -57.909209    
Loop time of 0.00285825 on 2 procs for 1 steps with 3 atoms

run 1 pre no post no update no
   Step          Temp          E_pair         E_mol          TotEng         Press     
       459   5722.6244      2.1654233      0.47803957     4.1228774     -57.909209    
       460   5120.9425      2.0849463      0.7148359      4.1236497     -133.35825    
Loop time of 0.00282604 on 2 procs for 1 steps with 3 atoms

run 1 pre yes post no update no
Per MPI rank memory allocation (min/avg/max) = 9.142 | 9.262 | 9.381 Mbytes
   Step          Temp          E_pair         E_mol          TotEng         Press     
       460   5120.9425      2.0849463      0.7148359      4.1236497     -133.35825    
       461   4415.7368      2.005763       0.97737089     4.1246915     -208.65661    
Loop time of 0.00276007 on 2 procs for 1 steps with 3 atoms

run 1 pre no post no update no
   Step          Temp          E_pair         E_mol          TotEng         Press     
       461   4415.7368      2.005763       0.97737089     4.1246915     -208.65661    
       462   3661.1495      1.9289532      1.2508804      4.1263151     -281.12581    
Loop time of 0.00280408 on 2 procs for 1 steps with 3 atoms

run 1 pre no post no update no
   Step          Temp          E_pair         E_mol          TotEng         Press     
       462   3661.1495      1.9289532      1.2508804      4.1263151     -281.12581    
       463   2916.5443      1.8555412      1.5197459      4.129273      -348.04034    
Loop time of 0.0027755 on 2 procs for 1 steps with 3 atoms

run 1 pre no post no update no
   Step          Temp          E_pair         E_mol          TotEng         Press     
       463   2916.5443      1.8555412      1.5197459      4.129273      -348.04034    
       464   2241.9712      1.7864445      1.768697       4.1347365     -406.81515    
Loop time of 0.00293354 on 2 procs for 1 steps with 3 atoms

run 1 pre no post no update no
   Step          Temp          E_pair         E_mol          TotEng         Press     
       464   2241.9712      1.7864445      1.768697       4.1347365     -406.81515    
       465   1691.6923      1.722408       1.9840693      4.1438141     -455.23077    
Loop time of 0.00281274 on 2 procs for 1 steps with 3 atoms

run 1 pre no post no update no
   Step          Temp          E_pair         E_mol          TotEng         Press     
       465   1691.6923      1.722408       1.9840693      4.1438141     -455.23077    
       466   1307.1092      1.6639656      2.1549106      4.1567904     -491.64736    
Loop time of 0.00277227 on 2 procs for 1 steps with 3 atoms

run 1 pre no post no update no
   Step          Temp          E_pair         E_mol          TotEng         Press     
       466   1307.1092      1.6639656      2.1549106      4.1567904     -491.64736    
       467   1111.9679      1.6114317      2.2737016      4.1725995     -515.13334    
Loop time of 0.00276497 on 2 procs for 1 steps with 3 atoms

run 1 pre no post no update no
   Step          Temp          E_pair         E_mol          TotEng         Press     
       467   1111.9679      1.6114317      2.2737016      4.1725995     -515.13334    
       468   1111.7771      1.5649618      2.3365718      4.1889505     -525.46632    
Loop time of 0.00276506 on 2 procs for 1 steps with 3 atoms

run 1 pre no post no update no
   Step          Temp          E_pair         E_mol          TotEng         Press     
       468   1111.7771      1.5649618      2.3365718      4.1889505     -525.46632    
       469   1296.9599      1.5246282      2.3430624      4.2029811     -523.02716    
Loop time of 0.00279212 on 2 procs for 1 steps with 3 atoms

run 1 pre no post no update no
   Step          Temp          E_pair         E_mol          TotEng         Press     
       469   1296.9599      1.5246282      2.3430624      4.2029811     -523.02716    
       470   1647.7494      1.4905123      2.2956001      4.2120891     -508.64194    
Loop time of 0.00291712 on 2 procs for 1 steps with 3 atoms

run 1 pre yes post no update no
Per MPI rank memory allocation (min/avg/max) = 9.142 | 9.262 | 9.381 Mbytes
   Step          Temp          E_pair         E_mol          TotEng         Press     
       470   1647.7494      1.4905123      2.2956001      4.2120891     -508.64194    
       471   2138.9164      1.4627766      2.198865       4.2145949     -483.42472    
Loop time of 0.0027354 on 2 procs for 1 steps with 3 atoms

run 1 pre no post no update no
   Step          Temp          E_pair         E_mol          TotEng         Press     
       471   2138.9164      1.4627766      2.198865       4.2145949     -483.42472    
       472   2743.2745      1.4416961      2.0591931      4.2100813     -448.65227    
Loop time of 0.00277776 on 2 procs for 1 steps with 3 atoms

run 1 pre no post no update no
   Step          Temp          E_pair         E_mol          TotEng         Press     
       472   2743.2745      1.4416961      2.0591931      4.2100813     -448.65227    
       473   3433.7022      1.4276648      1.8840876      4.1994341     -405.68009    
Loop time of 0.00297403 on 2 procs for 1 steps with 3 atoms

run 1 pre no post no update no
   Step          Temp          E_pair         E_mol          TotEng         Press     
       473   3433.7022      1.4276648      1.8840876      4.1994341     -405.68009    
       474   4183.8106      1.4211595      1.6818589      4.1846183     -355.89875    
Loop time of 0.00305943 on 2 procs for 1 steps with 3 atoms

run 1 pre no post no update no
   Step          Temp          E_pair         E_mol          TotEng         Press     
       474   4183.8106      1.4211595      1.6818589      4.1846183     -355.89875    
       475   4967.4626      1.4226674      1.4613751      4.1682323     -300.7258     
Loop time of 0.00307913 on 2 procs for 1 steps with 3 atoms

run 1 pre no post no update no
   Step          Temp          E_pair         E_mol          TotEng         Press     
       475   4967.4626      1.4226674      1.4613751      4.1682323     -300.7258     
       476   5757.4581      1.4326035      1.2318733      4.1528965     -241.62524    
Loop time of 0.00309151 on 2 procs for 1 steps with 3 atoms

run 1 pre no post no update no
   Step          Temp          E_pair         E_mol          TotEng         Press     
       476   5757.4581      1.4326035      1.2318733      4.1528965     -241.62524    
       477   6524.1487      1.4511842      1.0027532      4.1405621     -180.13852    
Loop time of 0.00331063 on 2 procs for 1 steps with 3 atoms

run 1 pre no post no update no
   Step          Temp          E_pair         E_mol          TotEng         Press     
       477   6524.1487      1.4511842      1.0027532      4.1405621     -180.13852    
       478   7235.3188      1.4783216      0.78325063     4.132049      -117.89213    
Loop time of 0.00314715 on 2 procs for 1 steps with 3 atoms

run 1 pre no post no update no
   Step          Temp          E_pair         E_mol          TotEng         Press     
       478   7235.3188      1.4783216      0.78325063     4.132049      -117.89213    
       479   7858.4857      1.5135404      0.58192493     4.1270434     -56.549624    
Loop time of 0.00319558 on 2 procs for 1 steps with 3 atoms

run 1 pre no post no update no
   Step          Temp          E_pair         E_mol          TotEng         Press     
       479   7858.4857      1.5135404      0.58192493     4.1270434     -56.549624    
       480   8365.3268      1.5559787      0.40599798     4.1245834      2.2962513    
Loop time of 0.00311542 on 2 procs for 1 steps with 3 atoms

run 1 pre yes post no update no
Per MPI rank memory allocation (min/avg/max) = 9.142 | 9.262 | 9.381 Mbytes
   Step          Temp          E_pair         E_mol          TotEng         Press     
       480   8365.3268      1.5559787      0.40599798     4.1245834      2.2962513    
       481   8736.3114      1.6044286      0.26069746     4.1236398      57.251491    
Loop time of 0.0029311 on 2 procs for 1 steps with 3 atoms

run 1 pre no post no update no
   Step          Temp          E_pair         E_mol          TotEng         Press     
       481   8736.3114      1.6044286      0.26069746     4.1236398      57.251491    
       482   8963.5148      1.6574465      0.14878489     4.1234818      107.22079    
Loop time of 0.003024 on 2 procs for 1 steps with 3 atoms

run 1 pre no post no update no
   Step          Temp          E_pair         E_mol          TotEng         Press     
       482   8963.5148      1.6574465      0.14878489     4.1234818      107.22079    
       483   9051.0107      1.7134644      0.070375924    4.1237103      151.4533     
Loop time of 0.00296012 on 2 procs for 1 steps with 3 atoms

run 1 pre no post no update no
   Step          Temp          E_pair         E_mol          TotEng         Press     
       483   9051.0107      1.7134644      0.070375924    4.1237103      151.4533     
       484   9013.5019      1.7709054      0.023063431    4.124142       189.5407     
Loop time of 0.00279343 on 2 procs for 1 steps with 3 atoms

run 1 pre no post no update no
   Step          Temp          E_pair         E_mol          TotEng         Press     
       484   9013.5019      1.7709054      0.023063431    4.124142       189.5407     
       485   8874.0291      1.828266       0.0022973675   4.1246799      221.38173    
Loop time of 0.00288957 on 2 procs for 1 steps with 3 atoms

run 1 pre no post no update no
   Step          Temp          E_pair         E_mol          TotEng         Press     
       485   8874.0291      1.828266       0.0022973675   4.1246799      221.38173    
       486   8661.2137      1.8842025      0.001960275    4.1252623      247.1258     
Loop time of 0.00275118 on 2 procs for 1 steps with 3 atoms

run 1 pre no post no update no
   Step          Temp          E_pair         E_mol          TotEng         Press     
       486   8661.2137      1.8842025      0.001960275    4.1252623      247.1258     
       487   8406.2352      1.9375722      0.015073489    4.1258281      267.10073    
Loop time of 0.00276382 on 2 procs for 1 steps with 3 atoms

run 1 pre no post no update no
   Step          Temp          E_pair         E_mol          TotEng         Press     
       487   8406.2352      1.9375722      0.015073489    4.1258281      267.10073    
       488   8139.723       1.9874795      0.034564138    4.1263272      281.73305    
Loop time of 0.00282792 on 2 procs for 1 steps with 3 atoms

run 1 pre no post no update no
   Step          Temp          E_pair         E_mol          TotEng         Press     
       488   8139.723       1.9874795      0.034564138    4.1263272      281.73305    
       489   7888.798       2.0332809      0.054017215    4.1267124      291.46724    
Loop time of 0.00277663 on 2 procs for 1 steps with 3 atoms

run 1 pre no post no update no
   Step          Temp          E_pair         E_mol          TotEng         Press     
       489   7888.798       2.0332809      0.054017215    4.1267124      291.46724    
       490   7674.5311      2.0745933      0.068335823    4.1269511      296.694      
Loop time of 0.00286477 on 2 procs for 1 steps with 3 atoms

run 1 pre yes post no update no
Per MPI rank memory allocation (min/avg/max) = 9.142 | 9.262 | 9.381 Mbytes
   Step          Temp          E_pair         E_mol          TotEng         Press     
       490   7674.5311      2.0745933      0.068335823    4.1269511      296.694      
       491   7510.0702      2.1112797      0.074239754    4.127025       297.69485    
Loop time of 0.00276462 on 2 procs for 1 steps with 3 atoms

run 1 pre no post no update no
   Step          Temp          E_pair         E_mol          TotEng         Press     
       491   7510.0702      2.1112797      0.074239754    4.127025       297.69485    
       492   7399.6255      2.1434308      0.070549214    4.1269334      294.61004    
Loop time of 0.00275085 on 2 procs for 1 steps with 3 atoms

run 1 pre no post no update no
   Step          Temp          E_pair         E_mol          TotEng         Press     
       492   7399.6255      2.1434308      0.070549214    4.1269334      294.61004    
       493   7338.4135      2.1713376      0.058225486    4.1266919      287.43281    
Loop time of 0.00281321 on 2 procs for 1 steps with 3 atoms

run 1 pre no post no update no
   Step          Temp          E_pair         E_mol          TotEng         Press     
       493   7338.4135      2.1713376      0.058225486    4.1266919      287.43281    
       494   7313.5466      2.1954623      0.04017002     4.1263326      276.03048    
Loop time of 0.00283085 on 2 procs for 1 steps with 3 atoms

run 1 pre no post no update no
   Step          Temp          E_pair         E_mol          TotEng         Press     
       494   7313.5466      2.1954623      0.04017002     4.1263326      276.03048    
       495   7305.7479      2.2164002      0.020812542    4.1258968      260.1885     
Loop time of 0.00300685 on 2 procs for 1 steps with 3 atoms

run 1 pre no post no update no
   Step          Temp          E_pair         E_mol          TotEng         Press     
       495   7305.7479      2.2164002      0.020812542    4.1258968      260.1885     
       496   7291.6786      2.2348433      0.00554227     4.1254324      239.67198    
Loop time of 0.0031349 on 2 procs for 1 steps with 3 atoms

run 1 pre no post no update no
   Step          Temp          E_pair         E_mol          TotEng         Press     
       496   7291.6786      2.2348433      0.00554227     4.1254324      239.67198    
       497   7246.613       2.2515401      5.0656783e-05  4.1249873      214.29636    
Loop time of 0.00292888 on 2 procs for 1 steps with 3 atoms

run 1 pre no post no update no
   Step          Temp          E_pair         E_mol          TotEng         Press     
       497   7246.613       2.2515401      5.0656783e-05  4.1249873      214.29636    
       498   7147.1776      2.2672573      0.0096583357   4.1246061      183.99899    
Loop time of 0.0029239 on 2 procs for 1 steps with 3 atoms

run 1 pre no post no update no
   Step          Temp          E_pair         E_mol          TotEng         Press     
       498   7147.1776      2.2672573      0.0096583357   4.1246061      183.99899    
       499   6973.885       2.2827425      0.038694232    4.1243275      148.9036     
Loop time of 0.00314455 on 2 procs for 1 steps with 3 atoms

run 1 pre no post no update no
   Step          Temp          E_pair         E_mol          TotEng         Press     
       499   6973.885       2.2827425      0.038694232    4.1243275      148.9036     
       500   6713.2386      2.298684       0.08998367     4.124176       109.37025    
Loop time of 0.0028934 on 2 procs for 1 steps with 3 atoms

run 1 pre yes post no update no
Per MPI rank memory allocation (min/avg/max) = 9.142 | 9.262 | 9.381 Mbytes
   Step          Temp          E_pair         E_mol          TotEng         Press     
       500   6713.2386      2.298684       0.08998367     4.124176       109.37025    
       501   6359.2377      2.3156869      0.16448742     4.1241663      66.026548    
Loop time of 0.00283377 on 2 procs for 1 steps with 3 atoms

run 1 pre no post no update no
   Step          Temp          E_pair         E_mol          TotEng         Press     
       501   6359.2377      2.3156869      0.16448742     4.1241663      66.026548    
       502   5914.1766      2.3342484      0.26111721     4.1243002      19.775844    
Loop time of 0.00283886 on 2 procs for 1 steps with 3 atoms

run 1 pre no post no update no
   Step          Temp          E_pair         E_mol          TotEng         Press     
       502   5914.1766      2.3342484      0.26111721     4.1243002      19.775844    
       503   5388.6976      2.3547411      0.37673706     4.1245658     -28.21803     
Loop time of 0.00284257 on 2 procs for 1 steps with 3 atoms

run 1 pre no post no update no
   Step          Temp          E_pair         E_mol          TotEng         Press     
       503   5388.6976      2.3547411      0.37673706     4.1245658     -28.21803     
       504   4801.1166      2.3774111      0.50634438     4.1249415     -76.568995    
Loop time of 0.00278109 on 2 procs for 1 steps with 3 atoms

run 1 pre no post no update no
   Step          Temp          E_pair         E_mol          TotEng         Press     
       504   4801.1166      2.3774111      0.50634438     4.1249415     -76.568995    
       505   4176.0966      2.4023789      0.64341147     4.1253961     -123.7273     
Loop time of 0.00292221 on 2 procs for 1 steps with 3 atoms

run 1 pre no post no update no
   Step          Temp          E_pair         E_mol          TotEng         Press     
       505   4176.0966      2.4023789      0.64341147     4.1253961     -123.7273     
       506   3542.7912      2.4296537      0.78035678     4.1258938     -168.05418    
Loop time of 0.00284653 on 2 procs for 1 steps with 3 atoms

run 1 pre no post no update no
   Step          Temp          E_pair         E_mol          TotEng         Press     
       506   3542.7912      2.4296537      0.78035678     4.1258938     -168.05418    
       507   2932.6161      2.4591463      0.90910661     4.1263936     -207.90759    
Loop time of 0.00287007 on 2 procs for 1 steps with 3 atoms

run 1 pre no post no update no
   Step          Temp          E_pair         E_mol          TotEng         Press     
       507   2932.6161      2.4591463      0.90910661     4.1263936     -207.90759    
       508   2376.83        2.4906934      1.0217023      4.1268545     -241.73247    
Loop time of 0.00288677 on 2 procs for 1 steps with 3 atoms

run 1 pre no post no update no
   Step          Temp          E_pair         E_mol          TotEng         Press     
       508   2376.83        2.4906934      1.0217023      4.1268545     -241.73247    
       509   1904.1168      2.5240821      1.1109057      4.1272406     -268.14929    
Loop time of 0.00279768 on 2 procs for 1 steps with 3 atoms

run 1 pre no post no update no
   Step          Temp          E_pair         E_mol          TotEng         Press     
       509   1904.1168      2.5240821      1.1109057      4.1272406     -268.14929    
       510   1538.3564      2.5590678      1.1707563      4.1275204     -286.03487    
Loop time of 0.00144713 on 2 procs for 1 steps with 3 atoms

run 1 pre yes post no update no
Per MPI rank memory allocation (min/avg/max) = 9.142 | 9.262 | 9.381 Mbytes
   Step          Temp          E_pair         E_mol          TotEng         Press     
       510   1538.3564      2.5590678      1.1707563      4.1275204     -286.03487    
       511   1296.7526      2.5953953      1.1970388      4.127671      -294.58942    
Loop time of 0.00139746 on 2 procs for 1 steps with 3 atoms

run 1 pre no post no update no
   Step          Temp          E_pair         E_mol          TotEng         Press     
       511   1296.7526      2.5953953      1.1970388      4.127671      -294.58942    
       512   1188.4601      2.6328142      1.1876248      4.12768       -293.38517    
Loop time of 0.00142933 on 2 procs for 1 steps with 3 atoms

run 1 pre no post no update no
   Step          Temp          E_pair         E_mol          TotEng         Press     
       512   1188.4601      2.6328142      1.1876248      4.12768       -293.38517    
       513   1213.8079      2.6710857      1.1426644      4.1275441     -282.39357    
Loop time of 0.00146705 on 2 procs for 1 steps with 3 atoms

run 1 pre no post no update no
   Step          Temp          E_pair         E_mol          TotEng         Press     
       513   1213.8079      2.6710857      1.1426644      4.1275441     -282.39357    
       514   1364.1778      2.7099914      1.0646132      4.1272722     -261.98859    
Loop time of 0.00140428 on 2 procs for 1 steps with 3 atoms

run 1 pre no post no update no
   Step          Temp          E_pair         E_mol          TotEng         Press     
       514   1364.1778      2.7099914      1.0646132      4.1272722     -261.98859    
       515   1622.5404      2.7493314      0.95809215     4.1268831     -232.92644    
Loop time of 0.00142103 on 2 procs for 1 steps with 3 atoms

run 1 pre no post no update no
   Step          Temp          E_pair         E_mol          TotEng         Press     
       515   1622.5404      2.7493314      0.95809215     4.1268831     -232.92644    
       516   1964.6101      2.7889211      0.82959141     4.1264041     -196.30293    
Loop time of 0.00143903 on 2 procs for 1 steps with 3 atoms

run 1 pre no post no update no
   Step          Temp          E_pair         E_mol          TotEng         Press     
       516   1964.6101      2.7889211      0.82959141     4.1264041     -196.30293    
       517   2360.5291      2.8285857      0.6870384      4.1258688     -153.49123    
Loop time of 0.00146948 on 2 procs for 1 steps with 3 atoms

run 1 pre no post no update no
   Step          Temp          E_pair         E_mol          TotEng         Press     
       517   2360.5291      2.8285857      0.6870384      4.1258688     -153.49123    
       518   2776.9579      2.8681541      0.53926235     4.1253164     -106.06454    
Loop time of 0.00144272 on 2 procs for 1 steps with 3 atoms

run 1 pre no post no update no
   Step          Temp          E_pair         E_mol          TotEng         Press     
       518   2776.9579      2.8681541      0.53926235     4.1253164     -106.06454    
       519   3179.4195      2.9074472      0.39539307     4.1247847     -55.708869    
Loop time of 0.00145922 on 2 procs for 1 steps with 3 atoms

run 1 pre no post no update no
   Step          Temp          E_pair         E_mol          TotEng         Press     
       519   3179.4195      2.9074472      0.39539307     4.1247847     -55.708869    
       520   3534.726       2.946277       0.26423742     4.1243128     -4.1312953    
Loop time of 0.00145623 on 2 procs for 1 steps with 3 atoms

run 1 pre yes post no update no
Per MPI rank memory allocation (min/avg/max) = 9.142 | 9.262 | 9.381 Mbytes
   Step          Temp          E_pair         E_mol          TotEng         Press     
       520   3534.726       2.946277       0.26423742     4.1243128     -4.1312953    
       521   3813.3145      2.984437       0.15367778     4.1239339      47.029382    
Loop time of 0.00141777 on 2 procs for 1 steps with 3 atoms

run 1 pre no post no update no
   Step          Temp          E_pair         E_mol          TotEng         Press     
       521   3813.3145      2.984437       0.15367778     4.1239339      47.029382    
       522   3991.3245      3.0217019      0.070135502    4.1236758      96.284693    
Loop time of 0.00142533 on 2 procs for 1 steps with 3 atoms

run 1 pre no post no update no
   Step          Temp          E_pair         E_mol          TotEng         Press     
       522   3991.3245      3.0217019      0.070135502    4.1236758      96.284693    
       523   4052.2703      3.0578234      0.018137202    4.1235547      142.36531    
Loop time of 0.00146247 on 2 procs for 1 steps with 3 atoms

run 1 pre no post no update no
   Step          Temp          E_pair         E_mol          TotEng         Press     
       523   4052.2703      3.0578234      0.018137202    4.1235547      142.36531    
       524   3988.1894      3.0925414      1.4428374e-05  4.1235837      184.2732     
Loop time of 0.00141227 on 2 procs for 1 steps with 3 atoms

run 1 pre no post no update no
   Step          Temp          E_pair         E_mol          TotEng         Press     
       524   3988.1894      3.0925414      1.4428374e-05  4.1235837      184.2732     
       525   3800.1903      3.1255733      0.015757658    4.1237573      221.31286    
Loop time of 0.00143634 on 2 procs for 1 steps with 3 atoms

run 1 pre no post no update no
   Step          Temp          E_pair         E_mol          TotEng         Press     
       525   3800.1903      3.1255733      0.015757658    4.1237573      221.31286    
       526   3498.3598      3.1566336      0.063034443    4.124065       253.10192    
Loop time of 0.00142848 on 2 procs for 1 steps with 3 atoms

run 1 pre no post no update no
   Step          Temp          E_pair         E_mol          TotEng         Press     
       526   3498.3598      3.1566336      0.063034443    4.124065       253.10192    
       527   3101.0424      3.1854344      0.13736989     4.1244867      279.55951    
Loop time of 0.00144365 on 2 procs for 1 steps with 3 atoms

run 1 pre no post no update no
   Step          Temp          E_pair         E_mol          TotEng         Press     
       527   3101.0424      3.1854344      0.13736989     4.1244867      279.55951    
       528   2633.5431      3.2116903      0.23247619     4.1249908      300.87469    
Loop time of 0.0014387 on 2 procs for 1 steps with 3 atoms

run 1 pre no post no update no
   Step          Temp          E_pair         E_mol          TotEng         Press     
       528   2633.5431      3.2116903      0.23247619     4.1249908      300.87469    
       529   2126.3478      3.2351322      0.34070741     4.1255436      317.45809    
Loop time of 0.0014045 on 2 procs for 1 steps with 3 atoms

run 1 pre no post no update no
   Step          Temp          E_pair         E_mol          TotEng         Press     
       529   2126.3478      3.2351322      0.34070741     4.1255436      317.45809    
       530   1612.9871      3.2555099      0.45360723     4.126107       329.88018    
Loop time of 0.00143425 on 2 procs for 1 steps with 3 atoms

run 1 pre yes post no update no
Per MPI rank memory allocation (min/avg/max) = 9.142 | 9.262 | 9.381 Mbytes
   Step          Temp          E_pair         E_mol          TotEng         Press     
       530   1612.9871      3.2555099      0.45360723     4.126107       329.88018    
       531   1127.6961      3.2725986      0.56251067     4.1266416      338.80153    
Loop time of 0.00143856 on 2 procs for 1 steps with 3 atoms

run 1 pre no post no update no
   Step          Temp          E_pair         E_mol          TotEng         Press     
       531   1127.6961      3.2725986      0.56251067     4.1266416      338.80153    
       532   703.02979      3.2862055      0.65915785     4.1271108      344.90045    
Loop time of 0.00144071 on 2 procs for 1 steps with 3 atoms

run 1 pre no post no update no
   Step          Temp          E_pair         E_mol          TotEng         Press     
       532   703.02979      3.2862055      0.65915785     4.1271108      344.90045    
       533   367.60314      3.2961737      0.73627678     4.1274833      348.80331    
Loop time of 0.0014947 on 2 procs for 1 steps with 3 atoms

run 1 pre no post no update no
   Step          Temp          E_pair         E_mol          TotEng         Press     
       533   367.60314      3.2961737      0.73627678     4.1274833      348.80331    
       534   144.1075       3.302383       0.78809507     4.1277328      351.02281    
Loop time of 0.00143538 on 2 procs for 1 steps with 3 atoms

run 1 pre no post no update no
   Step          Temp          E_pair         E_mol          TotEng         Press     
       534   144.1075       3.302383       0.78809507     4.1277328      351.02281    
       535   47.740609      3.3047546      0.81074532     4.1278419      351.90888    
Loop time of 0.00148388 on 2 procs for 1 steps with 3 atoms

run 1 pre no post no update no
   Step          Temp          E_pair         E_mol          TotEng         Press     
       535   47.740609      3.3047546      0.81074532     4.1278419      351.90888    
       536   85.155299      3.3032517      0.80253661     4.1278027      351.61572    
Loop time of 0.00150889 on 2 procs for 1 steps with 3 atoms

run 1 pre no post no update no
   Step          Temp          E_pair         E_mol          TotEng         Press     
       536   85.155299      3.3032517      0.80253661     4.1278027      351.61572    
       537   253.99808      3.2978826      0.76407366     4.1276199      350.0873     
Loop time of 0.00139691 on 2 procs for 1 steps with 3 atoms

run 1 pre no post no update no
   Step          Temp          E_pair         E_mol          TotEng         Press     
       537   253.99808      3.2978826      0.76407366     4.1276199      350.0873     
       538   543.06869      3.2886934      0.69821545     4.1273031      347.06219    
Loop time of 0.00141729 on 2 procs for 1 steps with 3 atoms

run 1 pre no post no update no
   Step          Temp          E_pair         E_mol          TotEng         Press     
       538   543.06869      3.2886934      0.69821545     4.1273031      347.06219    
       539   933.09015      3.2757771      0.60987617     4.126876       342.0982     
Loop time of 0.00147958 on 2 procs for 1 steps with 3 atoms

run 1 pre no post no update no
   Step          Temp          E_pair         E_mol          TotEng         Press     
       539   933.09015      3.2757771      0.60987617     4.126876       342.0982     
       540   1398.038       3.2592644      0.50568166     4.1263673      334.61388    
Loop time of 0.00167779 on 2 procs for 1 steps with 3 atoms

run 1 pre yes post no update no
Per MPI rank memory allocation (min/avg/max) = 9.142 | 9.262 | 9.381 Mbytes
   Step          Temp          E_pair         E_mol          TotEng         Press     
       540   1398.038       3.2592644      0.50568166     4.1263673      334.61388    
       541   1906.9394      3.2393238      0.39350488     4.1258112      323.94476    
Loop time of 0.00142679 on 2 procs for 1 steps with 3 atoms

run 1 pre no post no update no
   Step          Temp          E_pair         E_mol          TotEng         Press     
       541   1906.9394      3.2393238      0.39350488     4.1258112      323.94476    
       542   2426.0198      3.2161595      0.28191196     4.1252468      309.4099     
Loop time of 0.00165308 on 2 procs for 1 steps with 3 atoms

run 1 pre no post no update no
   Step          Temp          E_pair         E_mol          TotEng         Press     
       542   2426.0198      3.2161595      0.28191196     4.1252468      309.4099     
       543   2921.0511      3.1900053      0.17955706     4.1247134      290.38382    
Loop time of 0.00158771 on 2 procs for 1 steps with 3 atoms

run 1 pre no post no update no
   Step          Temp          E_pair         E_mol          TotEng         Press     
       543   2921.0511      3.1900053      0.17955706     4.1247134      290.38382    
       544   3359.7379      3.1611189      0.094568055    4.1242474      266.36827    
Loop time of 0.00162959 on 2 procs for 1 steps with 3 atoms

run 1 pre no post no update no
   Step          Temp          E_pair         E_mol          TotEng         Press     
       544   3359.7379      3.1611189      0.094568055    4.1242474      266.36827    
       545   3713.9783      3.129776       0.033966144    4.1238809      237.0587     
Loop time of 0.00138701 on 2 procs for 1 steps with 3 atoms

run 1 pre no post no update no
   Step          Temp          E_pair         E_mol          TotEng         Press     
       545   3713.9783      3.129776       0.033966144    4.1238809      237.0587     
       546   3961.8372      3.0962629      0.0031602212   4.1236384      202.39977    
Loop time of 0.00145926 on 2 procs for 1 steps with 3 atoms

run 1 pre no post no update no
   Step          Temp          E_pair         E_mol          TotEng         Press     
       546   3961.8372      3.0962629      0.0031602212   4.1236384      202.39977    
       547   4089.0951      3.0608731      0.0055520642   4.1235392      162.62586    
Loop time of 0.00139194 on 2 procs for 1 steps with 3 atoms

run 1 pre no post no update no
   Step          Temp          E_pair         E_mol          TotEng         Press     
       547   4089.0951      3.0608731      0.0055520642   4.1235392      162.62586    
       548   4090.2602      3.0238922      0.042280638    4.1235881      118.28219    
Loop time of 0.00145269 on 2 procs for 1 steps with 3 atoms

run 1 pre no post no update no
   Step          Temp          E_pair         E_mol          TotEng         Press     
       548   4090.2602      3.0238922      0.042280638    4.1235881      118.28219    
       549   3968.9698      2.9855983      0.11212412     4.1237817      70.225585    
Loop time of 0.0014567 on 2 procs for 1 steps with 3 atoms

run 1 pre no post no update no
   Step          Temp          E_pair         E_mol          TotEng         Press     
       549   3968.9698      2.9855983      0.11212412     4.1237817      70.225585    
       550   3737.7503      2.9462542      0.21156718     4.1241057      19.602805    
Loop time of 0.0014542 on 2 procs for 1 steps with 3 atoms

run 1 pre yes post no update no
Per MPI rank memory allocation (min/avg/max) = 9.142 | 9.262 | 9.381 Mbytes
   Step          Temp          E_pair         E_mol          TotEng         Press     
       550   3737.7503      2.9462542      0.21156718     4.1241057      19.602805    
       551   3417.1507      2.9061057      0.33502921     4.1245377     -32.1918      
Loop time of 0.00143911 on 2 procs for 1 steps with 3 atoms

run 1 pre no post no update no
   Step          Temp          E_pair         E_mol          TotEng         Press     
       551   3417.1507      2.9061057      0.33502921     4.1245377     -32.1918      
       552   3034.3067      2.8653788      0.47523782     4.1250465     -83.577719    
Loop time of 0.00143624 on 2 procs for 1 steps with 3 atoms

run 1 pre no post no update no
   Step          Temp          E_pair         E_mol          TotEng         Press     
       552   3034.3067      2.8653788      0.47523782     4.1250465     -83.577719    
       553   2621.0385      2.8242818      0.6237215      4.1255949     -132.86467    
Loop time of 0.00147636 on 2 procs for 1 steps with 3 atoms

run 1 pre no post no update no
   Step          Temp          E_pair         E_mol          TotEng         Press     
       553   2621.0385      2.8242818      0.6237215      4.1255949     -132.86467    
       554   2211.6136      2.7830117      0.7713865      4.1261451     -178.33934    
Loop time of 0.00146635 on 2 procs for 1 steps with 3 atoms

run 1 pre no post no update no
   Step          Temp          E_pair         E_mol          TotEng         Press     
       554   2211.6136      2.7830117      0.7713865      4.1261451     -178.33934    
       555   1840.3354      2.7417559      0.90913714     4.1266571     -218.35716    
Loop time of 0.00145857 on 2 procs for 1 steps with 3 atoms

run 1 pre no post no update no
   Step          Temp          E_pair         E_mol          TotEng         Press     
       555   1840.3354      2.7417559      0.90913714     4.1266571     -218.35716    
       556   1539.1313      2.700703       1.0284953      4.1270949     -251.4325     
Loop time of 0.00143061 on 2 procs for 1 steps with 3 atoms

run 1 pre no post no update no
   Step          Temp          E_pair         E_mol          TotEng         Press     
       556   1539.1313      2.700703       1.0284953      4.1270949     -251.4325     
       557   1335.3123      2.6600478      1.1221745      4.1274276     -276.32195    
Loop time of 0.0014397 on 2 procs for 1 steps with 3 atoms

run 1 pre no post no update no
   Step          Temp          E_pair         E_mol          TotEng         Press     
       557   1335.3123      2.6600478      1.1221745      4.1274276     -276.32195    
       558   1249.6692      2.6199983      1.1845681      4.1276313     -292.09458    
Loop time of 0.00145447 on 2 procs for 1 steps with 3 atoms

run 1 pre no post no update no
   Step          Temp          E_pair         E_mol          TotEng         Press     
       558   1249.6692      2.6199983      1.1845681      4.1276313     -292.09458    
       559   1295.0449      2.5807826      1.2121155      4.1276935     -298.18462    
Loop time of 0.00142753 on 2 procs for 1 steps with 3 atoms

run 1 pre no post no update no
   Step          Temp          E_pair         E_mol          TotEng         Press     
       559   1295.0449      2.5807826      1.2121155      4.1276935     -298.18462    
       560   1475.4888      2.5426464      1.2035205      4.1276107     -294.42311    
Loop time of 0.00143992 on 2 procs for 1 steps with 3 atoms

run 1 pre yes post no update no
Per MPI rank memory allocation (min/avg/max) = 9.142 | 9.262 | 9.381 Mbytes
   Step          Temp          E_pair         E_mol          TotEng         Press     
       560   1475.4888      2.5426464      1.2035205      4.1276107     -294.42311    
       561   1786.0581      2.505853       1.1598058      4.1273911     -281.04597    
Loop time of 0.00137875 on 2 procs for 1 steps with 3 atoms

run 1 pre no post no update no
   Step          Temp          E_pair         E_mol          TotEng         Press     
       561   1786.0581      2.505853       1.1598058      4.1273911     -281.04597    
       562   2213.2835      2.4706727      1.0842006      4.127052      -258.67828    
Loop time of 0.00147266 on 2 procs for 1 steps with 3 atoms

run 1 pre no post no update no
   Step          Temp          E_pair         E_mol          TotEng         Press     
       562   2213.2835      2.4706727      1.0842006      4.127052      -258.67828    
       563   2736.2682      2.4373743      0.98186753     4.1266227     -228.29545    
Loop time of 0.00381995 on 2 procs for 1 steps with 3 atoms

run 1 pre no post no update no
   Step          Temp          E_pair         E_mol          TotEng         Press     
       563   2736.2682      2.4373743      0.98186753     4.1266227     -228.29545    
       564   3328.339       2.4062013      0.85949202     4.1261365     -191.16459    
Loop time of 0.00291855 on 2 procs for 1 steps with 3 atoms

run 1 pre no post no update no
   Step          Temp          E_pair         E_mol          TotEng         Press     
       564   3328.339       2.4062013      0.85949202     4.1261365     -191.16459    
       565   3959.1277      2.3773553      0.72476272     4.1256329     -148.76934    
Loop time of 0.00286719 on 2 procs for 1 steps with 3 atoms

run 1 pre no post no update no
   Step          Temp          E_pair         E_mol          TotEng         Press     
       565   3959.1277      2.3773553      0.72476272     4.1256329     -148.76934    
       566   4596.9255      2.3509707      0.58578304     4.1251523     -102.72422    
Loop time of 0.00298223 on 2 procs for 1 steps with 3 atoms

run 1 pre no post no update no
   Step          Temp          E_pair         E_mol          TotEng         Press     
       566   4596.9255      2.3509707      0.58578304     4.1251523     -102.72422    
       567   5211.1289      2.3270926      0.4504584      4.1247336     -54.684103    
Loop time of 0.0029514 on 2 procs for 1 steps with 3 atoms

run 1 pre no post no update no
   Step          Temp          E_pair         E_mol          TotEng         Press     
       567   5211.1289      2.3270926      0.4504584      4.1247336     -54.684103    
       568   5774.5844      2.3056572      0.32590678     4.1244112     -6.2553687    
Loop time of 0.00294459 on 2 procs for 1 steps with 3 atoms

run 1 pre no post no update no
   Step          Temp          E_pair         E_mol          TotEng         Press     
       568   5774.5844      2.3056572      0.32590678     4.1244112     -6.2553687    
       569   6265.6433      2.2864771      0.217939       4.124212       41.08481     
Loop time of 0.00293515 on 2 procs for 1 steps with 3 atoms

run 1 pre no post no update no
   Step          Temp          E_pair         E_mol          TotEng         Press     
       569   6265.6433      2.2864771      0.217939       4.124212       41.08481     
       570   6669.7548      2.2692328      0.13065129     4.124151       86.055372    
Loop time of 0.00279572 on 2 procs for 1 steps with 3 atoms

run 1 pre yes post no update no
Per MPI rank memory allocation (min/avg/max) = 9.142 | 9.262 | 9.381 Mbytes
   Step          Temp          E_pair         E_mol          TotEng         Press     
       570   6669.7548      2.2692328      0.13065129     4.124151       86.055372    
       571   6980.4578      2.2534792      0.066165224    4.1242344      127.61982    
Loop time of 0.00279074 on 2 procs for 1 steps with 3 atoms

run 1 pre no post no update no
   Step          Temp          E_pair         E_mol          TotEng         Press     
       571   6980.4578      2.2534792      0.066165224    4.1242344      127.61982    
       572   7199.6724      2.238651       0.02454008     4.1244525      165.01246    
Loop time of 0.00286996 on 2 procs for 1 steps with 3 atoms

run 1 pre no post no update no
   Step          Temp          E_pair         E_mol          TotEng         Press     
       572   7199.6724      2.238651       0.02454008     4.1244525      165.01246    
       573   7337.246       2.224089       0.003869876    4.1247859      197.74144    
Loop time of 0.00293746 on 2 procs for 1 steps with 3 atoms

run 1 pre no post no update no
   Step          Temp          E_pair         E_mol          TotEng         Press     
       573   7337.246       2.224089       0.003869876    4.1247859      197.74144    
       574   7409.7675      2.2090635      0.00056299913  4.1252018      225.56801    
Loop time of 0.00285415 on 2 procs for 1 steps with 3 atoms

run 1 pre no post no update no
   Step          Temp          E_pair         E_mol          TotEng         Press     
       574   7409.7675      2.2090635      0.00056299913  4.1252018      225.56801    
       575   7438.7266      2.1928097      0.0097861251   4.1256576      248.46513    
Loop time of 0.00281095 on 2 procs for 1 steps with 3 atoms

run 1 pre no post no update no
   Step          Temp          E_pair         E_mol          TotEng         Press     
       575   7438.7266      2.1928097      0.0097861251   4.1256576      248.46513    
       576   7448.1617      2.1745694      0.026037659    4.126108       266.5594     
Loop time of 0.00286367 on 2 procs for 1 steps with 3 atoms

run 1 pre no post no update no
   Step          Temp          E_pair         E_mol          TotEng         Press     
       576   7448.1617      2.1745694      0.026037659    4.126108       266.5594     
       577   7461.9976      2.1536249      0.043800085    4.1265028      280.06217    
Loop time of 0.00290042 on 2 procs for 1 steps with 3 atoms

run 1 pre no post no update no
   Step          Temp          E_pair         E_mol          TotEng         Press     
       577   7461.9976      2.1536249      0.043800085    4.1265028      280.06217    
       578   7501.3271      2.1293455      0.058207541    4.1267983      289.19829    
Loop time of 0.00296148 on 2 procs for 1 steps with 3 atoms

run 1 pre no post no update no
   Step          Temp          E_pair         E_mol          TotEng         Press     
       578   7501.3271      2.1293455      0.058207541    4.1267983      289.19829    
       579   7581.9158      2.1012225      0.065657183    4.1269588      294.13996    
Loop time of 0.00279937 on 2 procs for 1 steps with 3 atoms

run 1 pre no post no update no
   Step          Temp          E_pair         E_mol          TotEng         Press     
       579   7581.9158      2.1012225      0.065657183    4.1269588      294.13996    
       580   7712.2078      2.068905       0.064293132    4.1269604      294.95455    
Loop time of 0.00282101 on 2 procs for 1 steps with 3 atoms

run 1 pre yes post no update no
Per MPI rank memory allocation (min/avg/max) = 9.142 | 9.262 | 9.381 Mbytes
   Step          Temp          E_pair         E_mol          TotEng         Press     
       580   7712.2078      2.068905       0.064293132    4.1269604      294.95455    
       581   7892.0713      2.0322347      0.054301824    4.1267971      291.57315    
Loop time of 0.00277889 on 2 procs for 1 steps with 3 atoms

run 1 pre no post no update no
   Step          Temp          E_pair         E_mol          TotEng         Press     
       581   7892.0713      2.0322347      0.054301824    4.1267971      291.57315    
       582   8112.4459      1.991271       0.037977506    4.1264804      283.78427    
Loop time of 0.00283598 on 2 procs for 1 steps with 3 atoms

run 1 pre no post no update no
   Step          Temp          E_pair         E_mol          TotEng         Press     
       582   8112.4459      1.991271       0.037977506    4.1264804      283.78427    
       583   8355.9518      1.9463095      0.019543786    4.1260364      271.2543     
Loop time of 0.00277829 on 2 procs for 1 steps with 3 atoms

run 1 pre no post no update no
   Step          Temp          E_pair         E_mol          TotEng         Press     
       583   8355.9518      1.9463095      0.019543786    4.1260364      271.2543     
       584   8598.4068      1.897897       0.0047472212   4.1255068      253.57278    
Loop time of 0.00278591 on 2 procs for 1 steps with 3 atoms

run 1 pre no post no update no
   Step          Temp          E_pair         E_mol          TotEng         Press     
       584   8598.4068      1.897897       0.0047472212   4.1255068      253.57278    
       585   8811.0949      1.846827       0.00026633397  4.1249402      230.3168     
Loop time of 0.00279601 on 2 procs for 1 steps with 3 atoms

run 1 pre no post no update no
   Step          Temp          E_pair         E_mol          TotEng         Press     
       585   8811.0949      1.846827       0.00026633397  4.1249402      230.3168     
       586   8963.5548      1.7941322      0.012999872    4.1243929      201.12791    
Loop time of 0.00276713 on 2 procs for 1 steps with 3 atoms

run 1 pre no post no update no
   Step          Temp          E_pair         E_mol          TotEng         Press     
       586   8963.5548      1.7941322      0.012999872    4.1243929      201.12791    
       587   9026.6199      1.7410491      0.049309084    4.1239226      165.79204    
Loop time of 0.00289184 on 2 procs for 1 steps with 3 atoms

run 1 pre no post no update no
   Step          Temp          E_pair         E_mol          TotEng         Press     
       587   9026.6199      1.7410491      0.049309084    4.1239226      165.79204    
       588   8975.4444      1.6889765      0.1142906      4.1236016      124.31472    
Loop time of 0.00285725 on 2 procs for 1 steps with 3 atoms

run 1 pre no post no update no
   Step          Temp          E_pair         E_mol          TotEng         Press     
       588   8975.4444      1.6889765      0.1142906      4.1236016      124.31472    
       589   8792.2915      1.6394048      0.21115146     4.123542       76.983787    
Loop time of 0.0028573 on 2 procs for 1 steps with 3 atoms

run 1 pre no post no update no
   Step          Temp          E_pair         E_mol          TotEng         Press     
       589   8792.2915      1.6394048      0.21115146     4.123542       76.983787    
       590   8468.8844      1.5938424      0.34075028     4.1239711      24.413721    
Loop time of 0.00283668 on 2 procs for 1 steps with 3 atoms

run 1 pre yes post no update no
Per MPI rank memory allocation (min/avg/max) = 9.142 | 9.262 | 9.381 Mbytes
   Step          Temp          E_pair         E_mol          TotEng         Press     
       590   8468.8844      1.5938424      0.34075028     4.1239711      24.413721    
       591   8008.0246      1.5537158      0.50136084     4.1253135     -32.437107    
Loop time of 0.00295215 on 2 procs for 1 steps with 3 atoms

run 1 pre no post no update no
   Step          Temp          E_pair         E_mol          TotEng         Press     
       591   8008.0246      1.5537158      0.50136084     4.1253135     -32.437107    
       592   7423.943       1.5202686      0.68870313     4.1282116     -92.286584    
Loop time of 0.00289467 on 2 procs for 1 steps with 3 atoms

run 1 pre no post no update no
   Step          Temp          E_pair         E_mol          TotEng         Press     
       592   7423.943       1.5202686      0.68870313     4.1282116     -92.286584    
       593   6740.7933      1.4944814      0.89625341     4.1333666     -153.59442    
Loop time of 0.00288623 on 2 procs for 1 steps with 3 atoms

run 1 pre no post no update no
   Step          Temp          E_pair         E_mol          TotEng         Press     
       593   6740.7933      1.4944814      0.89625341     4.1333666     -153.59442    
       594   5989.3255      1.4769958      1.115779       4.141137      -214.66585    
Loop time of 0.00304096 on 2 procs for 1 steps with 3 atoms

run 1 pre no post no update no
   Step          Temp          E_pair         E_mol          TotEng         Press     
       594   5989.3255      1.4769958      1.115779       4.141137      -214.66585    
       595   5202.9021      1.4681068      1.3379721      4.1511346     -273.75967    
Loop time of 0.0027771 on 2 procs for 1 steps with 3 atoms

run 1 pre no post no update no
   Step          Temp          E_pair         E_mol          TotEng         Press     
       595   5202.9021      1.4681068      1.3379721      4.1511346     -273.75967    
       596   4414.5127      1.4677999      1.5530395      4.1620805     -329.16506    
Loop time of 0.00274816 on 2 procs for 1 steps with 3 atoms

run 1 pre no post no update no
   Step          Temp          E_pair         E_mol          TotEng         Press     
       596   4414.5127      1.4677999      1.5530395      4.1620805     -329.16506    
       597   3655.6603      1.475838       1.751171       4.1720714     -379.23249    
Loop time of 0.0028868 on 2 procs for 1 steps with 3 atoms

run 1 pre no post no update no
   Step          Temp          E_pair         E_mol          TotEng         Press     
       597   3655.6603      1.475838       1.751171       4.1720714     -379.23249    
       598   2956.693       1.4918558      1.9228966      4.1791176     -422.3755     
Loop time of 0.00278148 on 2 procs for 1 steps with 3 atoms

run 1 pre no post no update no
   Step          Temp          E_pair         E_mol          TotEng         Press     
       598   2956.693       1.4918558      1.9228966      4.1791176     -422.3755     
       599   2347.4816      1.5154433      2.0594065      4.1817214     -457.07176    
Loop time of 0.00300585 on 2 procs for 1 steps with 3 atoms

run 1 pre no post no update no
   Step          Temp          E_pair         E_mol          TotEng         Press     
       599   2347.4816      1.5154433      2.0594065      4.1817214     -457.07176    
       600   1857.4726      1.546214       2.1529071      4.1793155     -481.88678    
Loop time of 0.00272498 on 2 procs for 1 steps with 3 atoms

run 1 pre yes post no update no
Per MPI rank memory allocation (min/avg/max) = 9.142 | 9.262 | 9.381 Mbytes
   Step          Temp          E_pair         E_mol          TotEng         Press     
       600   1857.4726      1.546214       2.1529071      4.1793155     -481.88678    
       601   1514.5469      1.583837       2.1970645      4.1724427     -495.53352    
Loop time of 0.00273261 on 2 procs for 1 steps with 3 atoms

run 1 pre no post no update no
   Step          Temp          E_pair         E_mol          TotEng         Press     
       601   1514.5469      1.583837       2.1970645      4.1724427     -495.53352    
       602   1342.4548      1.6280268      2.1875408      4.1626194     -496.97176    
Loop time of 0.0028127 on 2 procs for 1 steps with 3 atoms

run 1 pre no post no update no
   Step          Temp          E_pair         E_mol          TotEng         Press     
       602   1342.4548      1.6280268      2.1875408      4.1626194     -496.97176    
       603   1356.9861      1.6785157      2.1225812      4.1519053     -485.5402     
Loop time of 0.00281814 on 2 procs for 1 steps with 3 atoms

run 1 pre no post no update no
   Step          Temp          E_pair         E_mol          TotEng         Press     
       603   1356.9861      1.6785157      2.1225812      4.1519053     -485.5402     
       604   1561.6213      1.7349908      2.0035505      4.1422521     -461.09921    
Loop time of 0.00286029 on 2 procs for 1 steps with 3 atoms

run 1 pre no post no update no
   Step          Temp          E_pair         E_mol          TotEng         Press     
       604   1561.6213      1.7349908      2.0035505      4.1422521     -461.09921    
       605   1944.0873      1.7970403      1.8352707      4.134897      -424.14366    
Loop time of 0.00286489 on 2 procs for 1 steps with 3 atoms

run 1 pre no post no update no
   Step          Temp          E_pair         E_mol          TotEng         Press     
       605   1944.0873      1.7970403      1.8352707      4.134897      -424.14366    
       606   2475.4839      1.8641047      1.6260115      4.130079      -375.84011    
Loop time of 0.00283103 on 2 procs for 1 steps with 3 atoms

run 1 pre no post no update no
   Step          Temp          E_pair         E_mol          TotEng         Press     
       606   2475.4839      1.8641047      1.6260115      4.130079      -375.84011    
       607   3112.8268      1.9354725      1.3870526      4.127254      -317.96042    
Loop time of 0.00305627 on 2 procs for 1 steps with 3 atoms

run 1 pre no post no update no
   Step          Temp          E_pair         E_mol          TotEng         Press     
       607   3112.8268      1.9354725      1.3870526      4.127254      -317.96042    
       608   3804.1571      2.0102985      1.1318588      4.125609      -252.72887    
Loop time of 0.00303566 on 2 procs for 1 steps with 3 atoms

run 1 pre no post no update no
   Step          Temp          E_pair         E_mol          TotEng         Press     
       608   3804.1571      2.0102985      1.1318588      4.125609      -252.72887    
       609   4494.179       2.0876596      0.87502586     4.1245219     -182.63245    
Loop time of 0.0028337 on 2 procs for 1 steps with 3 atoms

run 1 pre no post no update no
   Step          Temp          E_pair         E_mol          TotEng         Press     
       609   4494.179       2.0876596      0.87502586     4.1245219     -182.63245    
       610   5128.9111      2.1665801      0.63117346     4.1236811     -110.24319    
Loop time of 0.00277266 on 2 procs for 1 steps with 3 atoms

run 1 pre yes post no update no
Per MPI rank memory allocation (min/avg/max) = 9.142 | 9.262 | 9.381 Mbytes
   Step          Temp          E_pair         E_mol          TotEng         Press     
       610   5128.9111      2.1665801      0.63117346     4.1236811     -110.24319    
       611   5659.2348      2.2460756      0.41390293     4.1230056     -38.065598    
Loop time of 0.00279996 on 2 procs for 1 steps with 3 atoms

run 1 pre no post no update no
   Step          Temp          E_pair         E_mol          TotEng         Press     
       611   5659.2348      2.2460756      0.41390293     4.1230056     -38.065598    
       612   6043.8712      2.3251662      0.23487586     4.1225054      31.593891    
Loop time of 0.00282316 on 2 procs for 1 steps with 3 atoms

run 1 pre no post no update no
   Step          Temp          E_pair         E_mol          TotEng         Press     
       612   6043.8712      2.3251662      0.23487586     4.1225054      31.593891    
       613   6251.9879      2.4028936      0.10304899     4.1222084      96.739253    
Loop time of 0.00293764 on 2 procs for 1 steps with 3 atoms

run 1 pre no post no update no
   Step          Temp          E_pair         E_mol          TotEng         Press     
       613   6251.9879      2.4028936      0.10304899     4.1222084      96.739253    
       614   6265.252       2.4783375      0.024102583    4.1221349      155.77465    
Loop time of 0.00328371 on 2 procs for 1 steps with 3 atoms

run 1 pre no post no update no
   Step          Temp          E_pair         E_mol          TotEng         Press     
       614   6265.252       2.4783375      0.024102583    4.1221349      155.77465    
       615   6079.0821      2.5506271      9.6518709e-05  4.1222897      207.56522    
Loop time of 0.00343095 on 2 procs for 1 steps with 3 atoms

run 1 pre no post no update no
   Step          Temp          E_pair         E_mol          TotEng         Press     
       615   6079.0821      2.5506271      9.6518709e-05  4.1222897      207.56522    
       616   5702.9625      2.6189537      0.029376206    4.1226614      251.46518    
Loop time of 0.00171246 on 2 procs for 1 steps with 3 atoms

run 1 pre no post no update no
   Step          Temp          E_pair         E_mol          TotEng         Press     
       616   5702.9625      2.6189537      0.029376206    4.1226614      251.46518    
       617   5159.786       2.6825825      0.10673395     4.1232258      287.31227    
Loop time of 0.00177393 on 2 procs for 1 steps with 3 atoms

run 1 pre no post no update no
   Step          Temp          E_pair         E_mol          TotEng         Press     
       617   5159.786       2.6825825      0.10673395     4.1232258      287.31227    
       618   4484.2726      2.7408544      0.22381363     4.1239435      315.38935    
Loop time of 0.00150105 on 2 procs for 1 steps with 3 atoms

run 1 pre no post no update no
   Step          Temp          E_pair         E_mol          TotEng         Press     
       618   4484.2726      2.7408544      0.22381363     4.1239435      315.38935    
       619   3720.5732      2.7931912      0.36972982     4.1247647      336.35751    
Loop time of 0.00160176 on 2 procs for 1 steps with 3 atoms

run 1 pre no post no update no
   Step          Temp          E_pair         E_mol          TotEng         Press     
       619   3720.5732      2.7931912      0.36972982     4.1247647      336.35751    
       620   2919.2274      2.8390957      0.53185771     4.1256329      351.16568    
Loop time of 0.00183981 on 2 procs for 1 steps with 3 atoms

run 1 pre yes post no update no
Per MPI rank memory allocation (min/avg/max) = 9.142 | 9.262 | 9.381 Mbytes
   Step          Temp          E_pair         E_mol          TotEng         Press     
       620   2919.2274      2.8390957      0.53185771     4.1256329      351.16568    
       621   2133.6845      2.8781495      0.69673852     4.1264888      360.94403    
Loop time of 0.00146356 on 2 procs for 1 steps with 3 atoms

run 1 pre no post no update no
   Step          Temp          E_pair         E_mol          TotEng         Press     
       621   2133.6845      2.8781495      0.69673852     4.1264888      360.94403    
       622   1416.6294      2.9100085      0.85103744     4.1272734      366.88915    
Loop time of 0.00158277 on 2 procs for 1 steps with 3 atoms

run 1 pre no post no update no
   Step          Temp          E_pair         E_mol          TotEng         Press     
       622   1416.6294      2.9100085      0.85103744     4.1272734      366.88915    
       623   816.36376      2.9343987      0.98248773     4.127933       370.1496     
Loop time of 0.00152993 on 2 procs for 1 steps with 3 atoms

run 1 pre no post no update no
   Step          Temp          E_pair         E_mol          TotEng         Press     
       623   816.36376      2.9343987      0.98248773     4.127933       370.1496     
       624   373.49232      2.9511116      1.080756       4.1284229      371.72026    
Loop time of 0.00153326 on 2 procs for 1 steps with 3 atoms

run 1 pre no post no update no
   Step          Temp          E_pair         E_mol          TotEng         Press     
       624   373.49232      2.9511116      1.080756       4.1284229      371.72026    
       625   118.13773      2.9599979      1.1381697      4.1287086      372.35292    
Loop time of 0.00152345 on 2 procs for 1 steps with 3 atoms

run 1 pre no post no update no
   Step          Temp          E_pair         E_mol          TotEng         Press     
       625   118.13773      2.9599979      1.1381697      4.1287086      372.35292    
       626   67.874099      2.9609666      1.1502568      4.1287702      372.4898     
Loop time of 0.00159993 on 2 procs for 1 steps with 3 atoms

run 1 pre no post no update no
   Step          Temp          E_pair         E_mol          TotEng         Press     
       626   67.874099      2.9609666      1.1502568      4.1287702      372.4898     
       627   226.51824      2.9539831      1.1160616      4.1286042      372.2247     
Loop time of 0.00147904 on 2 procs for 1 steps with 3 atoms

run 1 pre no post no update no
   Step          Temp          E_pair         E_mol          TotEng         Press     
       627   226.51824      2.9539831      1.1160616      4.1286042      372.2247     
       628   583.86078      2.939067       1.0382149      4.1282217      371.29428    
Loop time of 0.00144043 on 2 procs for 1 steps with 3 atoms

run 1 pre no post no update no
   Step          Temp          E_pair         E_mol          TotEng         Press     
       628   583.86078      2.939067       1.0382149      4.1282217      371.29428    
       629   1116.3559      2.9162942      0.92275339     4.1276483      369.1005     
Loop time of 0.0014391 on 2 procs for 1 steps with 3 atoms

run 1 pre no post no update no
   Step          Temp          E_pair         E_mol          TotEng         Press     
       629   1116.3559      2.9162942      0.92275339     4.1276483      369.1005     
       630   1788.7248      2.8858011      0.77870042     4.1269232      364.7625     
Loop time of 0.00143689 on 2 procs for 1 steps with 3 atoms

run 1 pre yes post no update no
Per MPI rank memory allocation (min/avg/max) = 9.142 | 9.262 | 9.381 Mbytes
   Step          Temp          E_pair         E_mol          TotEng         Press     
       630   1788.7248      2.8858011      0.77870042     4.1269232      364.7625     
       631   2556.3648      2.8477885      0.61743598     4.1260966      357.19423    
Loop time of 0.00138477 on 2 procs for 1 steps with 3 atoms

run 1 pre no post no update no
   Step          Temp          E_pair         E_mol          TotEng         Press     
       631   2556.3648      2.8477885      0.61743598     4.1260966      357.19423    
       632   3368.4024      2.8025249      0.45189861     4.1252239      345.20224    
Loop time of 0.0014493 on 2 procs for 1 steps with 3 atoms

run 1 pre no post no update no
   Step          Temp          E_pair         E_mol          TotEng         Press     
       632   3368.4024      2.8025249      0.45189861     4.1252239      345.20224    
       633   4171.1817      2.750357       0.2956737      4.1243657      327.59693    
Loop time of 0.00142006 on 2 procs for 1 steps with 3 atoms

run 1 pre no post no update no
   Step          Temp          E_pair         E_mol          TotEng         Press     
       633   4171.1817      2.750357       0.2956737      4.1243657      327.59693    
       634   4911.9498      2.6917116      0.16203082     4.1235811      303.30863    
Loop time of 0.00146977 on 2 procs for 1 steps with 3 atoms

run 1 pre no post no update no
   Step          Temp          E_pair         E_mol          TotEng         Press     
       634   4911.9498      2.6917116      0.16203082     4.1235811      303.30863    
       635   5542.4843      2.6271026      0.062976904    4.1229242      271.50033    
Loop time of 0.00142603 on 2 procs for 1 steps with 3 atoms

run 1 pre no post no update no
   Step          Temp          E_pair         E_mol          TotEng         Press     
       635   5542.4843      2.6271026      0.062976904    4.1229242      271.50033    
       636   6022.4133      2.5571331      0.0083909836   4.1224401      231.66849    
Loop time of 0.00145073 on 2 procs for 1 steps with 3 atoms

run 1 pre no post no update no
   Step          Temp          E_pair         E_mol          TotEng         Press     
       636   6022.4133      2.5571331      0.0083909836   4.1224401      231.66849    
       637   6321.9966      2.4824955      0.0053010804   4.122161       183.72416    
Loop time of 0.0014567 on 2 procs for 1 steps with 3 atoms

run 1 pre no post no update no
   Step          Temp          E_pair         E_mol          TotEng         Press     
       637   6321.9966      2.4824955      0.0053010804   4.122161       183.72416    
       638   6424.175       2.4039733      0.057354015    4.1221069      128.04801    
Loop time of 0.00362031 on 2 procs for 1 steps with 3 atoms

run 1 pre no post no update no
   Step          Temp          E_pair         E_mol          TotEng         Press     
       638   6424.175       2.4039733      0.057354015    4.1221069      128.04801    
       639   6325.7459      2.3224317      0.16451556     4.122281       65.514398    
Loop time of 0.00279928 on 2 procs for 1 steps with 3 atoms

run 1 pre no post no update no
   Step          Temp          E_pair         E_mol          TotEng         Press     
       639   6325.7459      2.3224317      0.16451556     4.122281       65.514398    
       640   6037.5828      2.2388119      0.32302245     4.122672      -2.5179515    
Loop time of 0.00277393 on 2 procs for 1 steps with 3 atoms

run 1 pre yes post no update no
Per MPI rank memory allocation (min/avg/max) = 9.142 | 9.262 | 9.381 Mbytes
   Step          Temp          E_pair         E_mol          TotEng         Press     
       640   6037.5828      2.2388119      0.32302245     4.122672      -2.5179515    
       641   5583.8937      2.154117       0.52559043     4.1232573     -74.24926     
Loop time of 0.00274274 on 2 procs for 1 steps with 3 atoms

run 1 pre no post no update no
   Step          Temp          E_pair         E_mol          TotEng         Press     
       641   5583.8937      2.154117       0.52559043     4.1232573     -74.24926     
       642   5000.6263      2.0693999      0.76186514     4.1240284     -147.51278    
Loop time of 0.00277938 on 2 procs for 1 steps with 3 atoms

run 1 pre no post no update no
   Step          Temp          E_pair         E_mol          TotEng         Press     
       642   5000.6263      2.0693999      0.76186514     4.1240284     -147.51278    
       643   4333.279       1.9857432      1.0190896      4.1250734     -219.87441    
Loop time of 0.00277291 on 2 procs for 1 steps with 3 atoms

run 1 pre no post no update no
   Step          Temp          E_pair         E_mol          TotEng         Press     
       643   4333.279       1.9857432      1.0190896      4.1250734     -219.87441    
       644   3634.4086      1.9042402      1.2829594      4.126768      -288.75199    
Loop time of 0.0028223 on 2 procs for 1 steps with 3 atoms

run 1 pre no post no update no
   Step          Temp          E_pair         E_mol          TotEng         Press     
       644   3634.4086      1.9042402      1.2829594      4.126768      -288.75199    
       645   2960.654       1.8259497      1.538646       4.1299848     -351.55992    
Loop time of 0.00271845 on 2 procs for 1 steps with 3 atoms

run 1 pre no post no update no
   Step          Temp          E_pair         E_mol          TotEng         Press     
       645   2960.654       1.8259497      1.538646       4.1299848     -351.55992    
       646   2368.3313      1.7518397      1.7719606      4.136062      -405.89397    
Loop time of 0.00275871 on 2 procs for 1 steps with 3 atoms

run 1 pre no post no update no
   Step          Temp          E_pair         E_mol          TotEng         Press     
       646   2368.3313      1.7518397      1.7719606      4.136062      -405.89397    
       647   1907.0231      1.6827169      1.9705545      4.1462756     -449.75391    
Loop time of 0.00309581 on 2 procs for 1 steps with 3 atoms

run 1 pre no post no update no
   Step          Temp          E_pair         E_mol          TotEng         Press     
       647   1907.0231      1.6827169      1.9705545      4.1462756     -449.75391    
       648   1612.6376      1.6191637      2.1249431      4.1610064     -481.75193    
Loop time of 0.00278958 on 2 procs for 1 steps with 3 atoms

run 1 pre no post no update no
   Step          Temp          E_pair         E_mol          TotEng         Press     
       648   1612.6376      1.6191637      2.1249431      4.1610064     -481.75193    
       649   1502.9537      1.5615358      2.2291178      4.1791976     -501.22754    
Loop time of 0.00287329 on 2 procs for 1 steps with 3 atoms

run 1 pre no post no update no
   Step          Temp          E_pair         E_mol          TotEng         Press     
       649   1502.9537      1.5615358      2.2291178      4.1791976     -501.22754    
       650   1577.561       1.5100012      2.2806366      4.1984693     -508.23       
Loop time of 0.0028067 on 2 procs for 1 steps with 3 atoms

run 1 pre yes post no update no
Per MPI rank memory allocation (min/avg/max) = 9.142 | 9.262 | 9.381 Mbytes
   Step          Temp          E_pair         E_mol          TotEng         Press     
       650   1577.561       1.5100012      2.2806366      4.1984693     -508.23       
       651   1821.5642      1.4646292      2.2802613      4.2158018     -503.39116    
Loop time of 0.00269623 on 2 procs for 1 steps with 3 atoms

run 1 pre no post no update no
   Step          Temp          E_pair         E_mol          TotEng         Press     
       651   1821.5642      1.4646292      2.2802613      4.2158018     -503.39116    
       652   2210.9182      1.4254752      2.2313211      4.2283635     -487.74973    
Loop time of 0.00276686 on 2 procs for 1 steps with 3 atoms

run 1 pre no post no update no
   Step          Temp          E_pair         E_mol          TotEng         Press     
       652   2210.9182      1.4254752      2.2313211      4.2283635     -487.74973    
       653   2717.4331      1.3926538      2.1389944      4.2341598     -462.58053    
Loop time of 0.00276857 on 2 procs for 1 steps with 3 atoms

run 1 pre no post no update no
   Step          Temp          E_pair         E_mol          TotEng         Press     
       653   2717.4331      1.3926538      2.1389944      4.2341598     -462.58053    
       654   3312.4491      1.3663903      2.0096509      4.2323765     -429.25894    
Loop time of 0.00275321 on 2 procs for 1 steps with 3 atoms

run 1 pre no post no update no
   Step          Temp          E_pair         E_mol          TotEng         Press     
       654   3312.4491      1.3663903      2.0096509      4.2323765     -429.25894    
       655   3969.038       1.3470205      1.8503266      4.2234239     -389.16812    
Loop time of 0.00284562 on 2 procs for 1 steps with 3 atoms

run 1 pre no post no update no
   Step          Temp          E_pair         E_mol          TotEng         Press     
       655   3969.038       1.3470205      1.8503266      4.2234239     -389.16812    
       656   4662.9863      1.3349781      1.6683479      4.2088026     -343.64297    
Loop time of 0.00282764 on 2 procs for 1 steps with 3 atoms

run 1 pre no post no update no
   Step          Temp          E_pair         E_mol          TotEng         Press     
       656   4662.9863      1.3349781      1.6683479      4.2088026     -343.64297    
       657   5372.7952      1.3307543      1.4710934      4.1908242     -293.94591    
Loop time of 0.00272902 on 2 procs for 1 steps with 3 atoms

run 1 pre no post no update no
   Step          Temp          E_pair         E_mol          TotEng         Press     
       657   5372.7952      1.3307543      1.4710934      4.1908242     -293.94591    
       658   6078.7873      1.3348299      1.265865       4.1721848     -241.27258    
Loop time of 0.0028147 on 2 procs for 1 steps with 3 atoms

run 1 pre no post no update no
   Step          Temp          E_pair         E_mol          TotEng         Press     
       658   6078.7873      1.3348299      1.265865       4.1721848     -241.27258    
       659   6761.516       1.3475858      1.0598246      4.1553995     -186.78462    
Loop time of 0.00281899 on 2 procs for 1 steps with 3 atoms

run 1 pre no post no update no
   Step          Temp          E_pair         E_mol          TotEng         Press     
       659   6761.516       1.3475858      1.0598246      4.1553995     -186.78462    
       660   7400.1898      1.3691899      0.85991623     4.1422053     -131.65394    
Loop time of 0.00281533 on 2 procs for 1 steps with 3 atoms

run 1 pre yes post no update no
Per MPI rank memory allocation (min/avg/max) = 9.142 | 9.262 | 9.381 Mbytes
   Step          Temp          E_pair         E_mol          TotEng         Press     
       660   7400.1898      1.3691899      0.85991623     4.1422053     -131.65394    
       661   7972.3612      1.3995067      0.67268197     4.1332057     -77.086433    
Loop time of 0.00315252 on 2 procs for 1 steps with 3 atoms

run 1 pre no post no update no
   Step          Temp          E_pair         E_mol          TotEng         Press     
       661   7972.3612      1.3995067      0.67268197     4.1332057     -77.086433    
       662   8455.8285      1.4380148      0.5039143      4.1279324     -24.296306    
Loop time of 0.00284568 on 2 procs for 1 steps with 3 atoms

run 1 pre no post no update no
   Step          Temp          E_pair         E_mol          TotEng         Press     
       662   8455.8285      1.4380148      0.5039143      4.1279324     -24.296306    
       663   8832.3007      1.4838127      0.35819052     4.1253322      25.57179     
Loop time of 0.00277742 on 2 procs for 1 steps with 3 atoms

run 1 pre no post no update no
   Step          Temp          E_pair         E_mol          TotEng         Press     
       663   8832.3007      1.4838127      0.35819052     4.1253322      25.57179     
       664   9091.0278      1.535686       0.23842864     4.1243298      71.537781    
Loop time of 0.0032575 on 2 procs for 1 steps with 3 atoms

run 1 pre no post no update no
   Step          Temp          E_pair         E_mol          TotEng         Press     
       664   9091.0278      1.535686       0.23842864     4.1243298      71.537781    
       665   9230.689       1.5922136      0.14561557     4.1241495      112.85612    
Loop time of 0.00284546 on 2 procs for 1 steps with 3 atoms

run 1 pre no post no update no
   Step          Temp          E_pair         E_mol          TotEng         Press     
       665   9230.689       1.5922136      0.14561557     4.1241495      112.85612    
       666   9259.1396      1.6518918      0.078785614    4.1243529      149.04165    
Loop time of 0.0029185 on 2 procs for 1 steps with 3 atoms

run 1 pre no post no update no
   Step          Temp          E_pair         E_mol          TotEng         Press     
       666   9259.1396      1.6518918      0.078785614    4.1243529      149.04165    
       667   9191.6953      1.7132431      0.035240822    4.1247236      179.85672    
Loop time of 0.00284833 on 2 procs for 1 steps with 3 atoms

run 1 pre no post no update no
   Step          Temp          E_pair         E_mol          TotEng         Press     
       667   9191.6953      1.7132431      0.035240822    4.1247236      179.85672    
       668   9048.7698      1.7749109      0.010956794    4.1251582      205.27421    
Loop time of 0.00293547 on 2 procs for 1 steps with 3 atoms

run 1 pre no post no update no
   Step          Temp          E_pair         E_mol          TotEng         Press     
       668   9048.7698      1.7749109      0.010956794    4.1251582      205.27421    
       669   8853.343       1.8357198      0.0011057503   4.1255944      225.42677    
Loop time of 0.00282528 on 2 procs for 1 steps with 3 atoms

run 1 pre no post no update no
   Step          Temp          E_pair         E_mol          TotEng         Press     
       669   8853.343       1.8357198      0.0011057503   4.1255944      225.42677    
       670   8628.478       1.8947199      0.00063092651  4.1259875      240.55005    
Loop time of 0.00288307 on 2 procs for 1 steps with 3 atoms

run 1 pre yes post no update no
Per MPI rank memory allocation (min/avg/max) = 9.142 | 9.262 | 9.381 Mbytes
   Step          Temp          E_pair         E_mol          TotEng         Press     
       670   8628.478       1.8947199      0.00063092651  4.1259875      240.55005    
       671   8395.0415      1.9512023      0.0048094337   4.1263003      250.92528    
Loop time of 0.00273961 on 2 procs for 1 steps with 3 atoms

run 1 pre no post no update no
   Step          Temp          E_pair         E_mol          TotEng         Press     
       671   8395.0415      1.9512023      0.0048094337   4.1263003      250.92528    
       672   8169.7931      2.004707       0.0097450406   4.1265093      256.82793    
Loop time of 0.00281485 on 2 procs for 1 steps with 3 atoms

run 1 pre no post no update no
   Step          Temp          E_pair         E_mol          TotEng         Press     
       672   8169.7931      2.004707       0.0097450406   4.1265093      256.82793    
       673   7963.9996      2.0550054      0.01274059     4.1266015      258.48752    
Loop time of 0.00277428 on 2 procs for 1 steps with 3 atoms

run 1 pre no post no update no
   Step          Temp          E_pair         E_mol          TotEng         Press     
       673   7963.9996      2.0550054      0.01274059     4.1266015      258.48752    
       674   7782.6947      2.1020772      0.012513558    4.1265753      256.06341    
Loop time of 0.00275329 on 2 procs for 1 steps with 3 atoms

run 1 pre no post no update no
   Step          Temp          E_pair         E_mol          TotEng         Press     
       674   7782.6947      2.1020772      0.012513558    4.1265753      256.06341    
       675   7624.6378      2.146083       0.0092368209   4.1264434      249.63916    
Loop time of 0.00278898 on 2 procs for 1 steps with 3 atoms

run 1 pre no post no update no
   Step          Temp          E_pair         E_mol          TotEng         Press     
       675   7624.6378      2.146083       0.0092368209   4.1264434      249.63916    
       676   7482.9494      2.1873252      0.0044075783   4.126227       239.23474    
Loop time of 0.00274838 on 2 procs for 1 steps with 3 atoms

run 1 pre no post no update no
   Step          Temp          E_pair         E_mol          TotEng         Press     
       676   7482.9494      2.1873252      0.0044075783   4.126227       239.23474    
       677   7346.3277      2.2262145      0.00056736806  4.1259566      224.83502    
Loop time of 0.00285989 on 2 procs for 1 steps with 3 atoms

run 1 pre no post no update no
   Step          Temp          E_pair         E_mol          TotEng         Press     
       677   7346.3277      2.2262145      0.00056736806  4.1259566      224.83502    
       678   7200.69        2.2632291      0.00091204779  4.1256656      206.42946    
Loop time of 0.00283643 on 2 procs for 1 steps with 3 atoms

run 1 pre no post no update no
   Step          Temp          E_pair         E_mol          TotEng         Press     
       678   7200.69        2.2632291      0.00091204779  4.1256656      206.42946    
       679   7031.0466      2.2988792      0.0088403931   4.1253878      184.05809    
Loop time of 0.00280821 on 2 procs for 1 steps with 3 atoms

run 1 pre no post no update no
   Step          Temp          E_pair         E_mol          TotEng         Press     
       679   7031.0466      2.2988792      0.0088403931   4.1253878      184.05809    
       680   6823.4028      2.3336742      0.027492906    4.1251551      157.85738    
Loop time of 0.0028326 on 2 procs for 1 steps with 3 atoms

run 1 pre yes post no update no
Per MPI rank memory allocation (min/avg/max) = 9.142 | 9.262 | 9.381 Mbytes
   Step          Temp          E_pair         E_mol          TotEng         Press     
       680   6823.4028      2.3336742      0.027492906    4.1251551      157.85738    
       681   6566.4991      2.3680897      0.059329166    4.1249921      128.10049    
Loop time of 0.00280345 on 2 procs for 1 steps with 3 atoms

run 1 pre no post no update no
   Step          Temp          E_pair         E_mol          TotEng         Press     
       681   6566.4991      2.3680897      0.059329166    4.1249921      128.10049    
       682   6253.2277      2.4025467      0.1057841      4.124917       95.227323    
Loop time of 0.00283267 on 2 procs for 1 steps with 3 atoms

run 1 pre no post no update no
   Step          Temp          E_pair         E_mol          TotEng         Press     
       682   6253.2277      2.4025467      0.1057841      4.124917       95.227323    
       683   5881.609       2.4373895      0.16703271     4.1249375      59.86032     
Loop time of 0.00290094 on 2 procs for 1 steps with 3 atoms

run 1 pre no post no update no
   Step          Temp          E_pair         E_mol          TotEng         Press     
       683   5881.609       2.4373895      0.16703271     4.1249375      59.86032     
       684   5455.2584      2.4728778      0.24188051     4.1250533      22.804691    
Loop time of 0.00279345 on 2 procs for 1 steps with 3 atoms

run 1 pre no post no update no
   Step          Temp          E_pair         E_mol          TotEng         Press     
       684   5455.2584      2.4728778      0.24188051     4.1250533      22.804691    
       685   4983.3211      2.5091819      0.32778513     4.1252566     -14.968063    
Loop time of 0.00285695 on 2 procs for 1 steps with 3 atoms

run 1 pre no post no update no
   Step          Temp          E_pair         E_mol          TotEng         Press     
       685   4983.3211      2.5091819      0.32778513     4.1252566     -14.968063    
       686   4479.9018      2.5463807      0.42100273     4.1255289     -52.352344    
Loop time of 0.00146817 on 2 procs for 1 steps with 3 atoms

run 1 pre no post no update no
   Step          Temp          E_pair         E_mol          TotEng         Press     
       686   4479.9018      2.5463807      0.42100273     4.1255289     -52.352344    
       687   3963.0514      2.5844754      0.51684365     4.1258482     -88.153632    
Loop time of 0.00147821 on 2 procs for 1 steps with 3 atoms

run 1 pre no post no update no
   Step          Temp          E_pair         E_mol          TotEng         Press     
       687   3963.0514      2.5844754      0.51684365     4.1258482     -88.153632    
       688   3453.4086      2.6233991      0.61001352     4.1261888     -121.14417    
Loop time of 0.00142944 on 2 procs for 1 steps with 3 atoms

run 1 pre no post no update no
   Step          Temp          E_pair         E_mol          TotEng         Press     
       688   3453.4086      2.6233991      0.61001352     4.1261888     -121.14417    
       689   2972.614       2.6630308      0.69501048     4.1265223     -150.12481    
Loop time of 0.00141824 on 2 procs for 1 steps with 3 atoms

run 1 pre no post no update no
   Step          Temp          E_pair         E_mol          TotEng         Press     
       689   2972.614       2.6630308      0.69501048     4.1265223     -150.12481    
       690   2541.6293      2.7032131      0.76654588     4.1268218     -173.98852    
Loop time of 0.00171931 on 2 procs for 1 steps with 3 atoms

run 1 pre yes post no update no
Per MPI rank memory allocation (min/avg/max) = 9.142 | 9.262 | 9.381 Mbytes
   Step          Temp          E_pair         E_mol          TotEng         Press     
       690   2541.6293      2.7032131      0.76654588     4.1268218     -173.98852    
       691   2179.0968      2.7437666      0.81995493     4.1270622     -191.78137    
Loop time of 0.00142017 on 2 procs for 1 steps with 3 atoms

run 1 pre no post no update no
   Step          Temp          E_pair         E_mol          TotEng         Press     
       691   2179.0968      2.7437666      0.81995493     4.1270622     -191.78137    
       692   1899.8672      2.784504       0.85156527     4.1272235     -202.75646    
Loop time of 0.00145931 on 2 procs for 1 steps with 3 atoms

run 1 pre no post no update no
   Step          Temp          E_pair         E_mol          TotEng         Press     
       692   1899.8672      2.784504       0.85156527     4.1272235     -202.75646    
       693   1713.807       2.8252442      0.85899525     4.1272934     -206.41698    
Loop time of 0.00190493 on 2 procs for 1 steps with 3 atoms

run 1 pre no post no update no
   Step          Temp          E_pair         E_mol          TotEng         Press     
       693   1713.807       2.8252442      0.85899525     4.1272934     -206.41698    
       694   1624.9767      2.8658146      0.8413593      4.1272633     -202.5459     
Loop time of 0.0014173 on 2 procs for 1 steps with 3 atoms

run 1 pre no post no update no
   Step          Temp          E_pair         E_mol          TotEng         Press     
       694   1624.9767      2.8658146      0.8413593      4.1272633     -202.5459     
       695   1631.2371      2.9060629      0.79936493     4.1271357     -191.2193     
Loop time of 0.00150323 on 2 procs for 1 steps with 3 atoms

run 1 pre no post no update no
   Step          Temp          E_pair         E_mol          TotEng         Press     
       695   1631.2371      2.9060629      0.79936493     4.1271357     -191.2193     
       696   1724.314       2.9458529      0.73529412     4.1269171     -172.8035     
Loop time of 0.00143613 on 2 procs for 1 steps with 3 atoms

run 1 pre no post no update no
   Step          Temp          E_pair         E_mol          TotEng         Press     
       696   1724.314       2.9458529      0.73529412     4.1269171     -172.8035     
       697   1890.3119      2.9850693      0.65287021     4.1266235     -147.93525    
Loop time of 0.00147583 on 2 procs for 1 steps with 3 atoms

run 1 pre no post no update no
   Step          Temp          E_pair         E_mol          TotEng         Press     
       697   1890.3119      2.9850693      0.65287021     4.1266235     -147.93525    
       698   2110.6413      3.0236114      0.55702005     4.1262751     -117.48702    
Loop time of 0.00145117 on 2 procs for 1 steps with 3 atoms

run 1 pre no post no update no
   Step          Temp          E_pair         E_mol          TotEng         Press     
       698   2110.6413      3.0236114      0.55702005     4.1262751     -117.48702    
       699   2363.2874      3.0613898      0.4535484      4.1258959     -82.519169    
Loop time of 0.0014539 on 2 procs for 1 steps with 3 atoms

run 1 pre no post no update no
   Step          Temp          E_pair         E_mol          TotEng         Press     
       699   2363.2874      3.0613898      0.4535484      4.1258959     -82.519169    
       700   2624.3295      3.0983228      0.34874812     4.1255134     -44.222604    
Loop time of 0.00146411 on 2 procs for 1 steps with 3 atoms

run 1 pre yes post no update no
Per MPI rank memory allocation (min/avg/max) = 9.142 | 9.262 | 9.381 Mbytes
   Step          Temp          E_pair         E_mol          TotEng         Press     
       700   2624.3295      3.0983228      0.34874812     4.1255134     -44.222604    
       701   2869.6003      3.1343313      0.24897408     4.1251553     -3.8554456    
Loop time of 0.00141202 on 2 procs for 1 steps with 3 atoms

run 1 pre no post no update no
   Step          Temp          E_pair         E_mol          TotEng         Press     
       701   2869.6003      3.1343313      0.24897408     4.1251553     -3.8554456    
       702   3076.3652      3.1693326      0.16021144     4.1248468      37.321873    
Loop time of 0.00140785 on 2 procs for 1 steps with 3 atoms

run 1 pre no post no update no
   Step          Temp          E_pair         E_mol          TotEng         Press     
       702   3076.3652      3.1693326      0.16021144     4.1248468      37.321873    
       703   3224.9007      3.2032389      0.087668947    4.1246101      78.109235    
Loop time of 0.00147586 on 2 procs for 1 steps with 3 atoms

run 1 pre no post no update no
   Step          Temp          E_pair         E_mol          TotEng         Press     
       703   3224.9007      3.2032389      0.087668947    4.1246101      78.109235    
       704   3299.8605      3.2359549      0.035426424    4.1244622      117.42285    
Loop time of 0.00138977 on 2 procs for 1 steps with 3 atoms

run 1 pre no post no update no
   Step          Temp          E_pair         E_mol          TotEng         Press     
       704   3299.8605      3.2359549      0.035426424    4.1244622      117.42285    
       705   3291.331       3.2673756      0.006161355    4.1244128      154.34137    
Loop time of 0.00148796 on 2 procs for 1 steps with 3 atoms

run 1 pre no post no update no
   Step          Temp          E_pair         E_mol          TotEng         Press     
       705   3291.331       3.2673756      0.006161355    4.1244128      154.34137    
       706   3195.5027      3.2973922      0.00097388563  4.1244684      188.13965    
Loop time of 0.0014409 on 2 procs for 1 steps with 3 atoms

run 1 pre no post no update no
   Step          Temp          E_pair         E_mol          TotEng         Press     
       706   3195.5027      3.2973922      0.00097388563  4.1244684      188.13965    
       707   3014.9101      3.3258838      0.019322456    4.1246217      218.30741    
Loop time of 0.00145239 on 2 procs for 1 steps with 3 atoms

run 1 pre no post no update no
   Step          Temp          E_pair         E_mol          TotEng         Press     
       707   3014.9101      3.3258838      0.019322456    4.1246217      218.30741    
       708   2758.2262      3.3527324      0.059074333    4.1248642      244.55366    
Loop time of 0.00141804 on 2 procs for 1 steps with 3 atoms

run 1 pre no post no update no
   Step          Temp          E_pair         E_mol          TotEng         Press     
       708   2758.2262      3.3527324      0.059074333    4.1248642      244.55366    
       709   2439.6255      3.3778202      0.11666709     4.1251799      266.79558    
Loop time of 0.00141403 on 2 procs for 1 steps with 3 atoms

run 1 pre no post no update no
   Step          Temp          E_pair         E_mol          TotEng         Press     
       709   2439.6255      3.3778202      0.11666709     4.1251799      266.79558    
       710   2077.7648      3.4010317      0.18736916     4.1255453      285.13407    
Loop time of 0.00145016 on 2 procs for 1 steps with 3 atoms

run 1 pre yes post no update no
Per MPI rank memory allocation (min/avg/max) = 9.142 | 9.262 | 9.381 Mbytes
   Step          Temp          E_pair         E_mol          TotEng         Press     
       710   2077.7648      3.4010317      0.18736916     4.1255453      285.13407    
       711   1694.4544      3.4222649      0.26562056     4.1259363      299.81855    
Loop time of 0.00152546 on 2 procs for 1 steps with 3 atoms

run 1 pre no post no update no
   Step          Temp          E_pair         E_mol          TotEng         Press     
       711   1694.4544      3.4222649      0.26562056     4.1259363      299.81855    
       712   1313.1153      3.441428       0.34542934     4.1263243      311.20309    
Loop time of 0.00147401 on 2 procs for 1 steps with 3 atoms

run 1 pre no post no update no
   Step          Temp          E_pair         E_mol          TotEng         Press     
       712   1313.1153      3.441428       0.34542934     4.1263243      311.20309    
       713   957.13346      3.4584506      0.42079528     4.1266843      319.6986     
Loop time of 0.00147796 on 2 procs for 1 steps with 3 atoms

run 1 pre no post no update no
   Step          Temp          E_pair         E_mol          TotEng         Press     
       713   957.13346      3.4584506      0.42079528     4.1266843      319.6986     
       714   648.22669      3.4732806      0.48613093     4.1269912      325.7238     
Loop time of 0.00149664 on 2 procs for 1 steps with 3 atoms

run 1 pre no post no update no
   Step          Temp          E_pair         E_mol          TotEng         Press     
       714   648.22669      3.4732806      0.48613093     4.1269912      325.7238     
       715   404.93891      3.4858894      0.53665027     4.1272246      329.6596     
Loop time of 0.00160374 on 2 procs for 1 steps with 3 atoms

run 1 pre no post no update no
   Step          Temp          E_pair         E_mol          TotEng         Press     
       715   404.93891      3.4858894      0.53665027     4.1272246      329.6596     
       716   241.36648      3.4962727      0.56869799     4.1273688      331.80994    
Loop time of 0.00153896 on 2 procs for 1 steps with 3 atoms

run 1 pre no post no update no
   Step          Temp          E_pair         E_mol          TotEng         Press     
       716   241.36648      3.4962727      0.56869799     4.1273688      331.80994    
       717   166.20323      3.5044508      0.57999697     4.1274147      332.37202    
Loop time of 0.00164334 on 2 procs for 1 steps with 3 atoms

run 1 pre no post no update no
   Step          Temp          E_pair         E_mol          TotEng         Press     
       717   166.20323      3.5044508      0.57999697     4.1274147      332.37202    
       718   182.16795      3.5104681      0.5697973      4.1273596      331.41829    
Loop time of 0.00147264 on 2 procs for 1 steps with 3 atoms

run 1 pre no post no update no
   Step          Temp          E_pair         E_mol          TotEng         Press     
       718   182.16795      3.5104681      0.5697973      4.1273596      331.41829    
       719   285.85073      3.5143921      0.53891739     4.1272077      328.89117    
Loop time of 0.00147596 on 2 procs for 1 steps with 3 atoms

run 1 pre no post no update no
   Step          Temp          E_pair         E_mol          TotEng         Press     
       719   285.85073      3.5143921      0.53891739     4.1272077      328.89117    
       720   467.98565      3.5163126      0.48967537     4.1269718      324.61108    
Loop time of 0.00158581 on 2 procs for 1 steps with 3 atoms

run 1 pre yes post no update no
Per MPI rank memory allocation (min/avg/max) = 9.142 | 9.262 | 9.381 Mbytes
   Step          Temp          E_pair         E_mol          TotEng         Press     
       720   467.98565      3.5163126      0.48967537     4.1269718      324.61108    
       721   714.12801      3.516335       0.42571605     4.1266676      318.2966     
Loop time of 0.00153334 on 2 procs for 1 steps with 3 atoms

run 1 pre no post no update no
   Step          Temp          E_pair         E_mol          TotEng         Press     
       721   714.12801      3.516335       0.42571605     4.1266676      318.2966     
       722   1005.6871      3.5145797      0.35174646     4.1263167      309.59588    
Loop time of 0.00147664 on 2 procs for 1 steps with 3 atoms

run 1 pre no post no update no
   Step          Temp          E_pair         E_mol          TotEng         Press     
       722   1005.6871      3.5145797      0.35174646     4.1263167      309.59588    
       723   1321.2422      3.5111775      0.27319841     4.1259438      298.12623    
Loop time of 0.0014648 on 2 procs for 1 steps with 3 atoms

run 1 pre no post no update no
   Step          Temp          E_pair         E_mol          TotEng         Press     
       723   1321.2422      3.5111775      0.27319841     4.1259438      298.12623    
       724   1638.0494      3.5062643      0.19584175     4.1255751      283.51918    
Loop time of 0.00142494 on 2 procs for 1 steps with 3 atoms

run 1 pre no post no update no
   Step          Temp          E_pair         E_mol          TotEng         Press     
       724   1638.0494      3.5062643      0.19584175     4.1255751      283.51918    
       725   1933.6366      3.4999763      0.12537535     4.125236       265.46752    
Loop time of 0.00153906 on 2 procs for 1 steps with 3 atoms

run 1 pre no post no update no
   Step          Temp          E_pair         E_mol          TotEng         Press     
       725   1933.6366      3.4999763      0.12537535     4.125236       265.46752    
       726   2187.3748      3.4924448      0.067023951    4.1249496      243.77059    
Loop time of 0.00145268 on 2 procs for 1 steps with 3 atoms

run 1 pre no post no update no
   Step          Temp          E_pair         E_mol          TotEng         Press     
       726   2187.3748      3.4924448      0.067023951    4.1249496      243.77059    
       727   2381.9181      3.4837931      0.025169074    4.1247363      218.37447    
Loop time of 0.00147364 on 2 procs for 1 steps with 3 atoms

run 1 pre no post no update no
   Step          Temp          E_pair         E_mol          TotEng         Press     
       727   2381.9181      3.4837931      0.025169074    4.1247363      218.37447    
       728   2504.4115      3.4741298      0.0030394994   4.1246105      189.40347    
Loop time of 0.00150252 on 2 procs for 1 steps with 3 atoms

run 1 pre no post no update no
   Step          Temp          E_pair         E_mol          TotEng         Press     
       728   2504.4115      3.4741298      0.0030394994   4.1246105      189.40347    
       729   2547.384       3.4635475      0.0024830112   4.1245809      157.18058    
Loop time of 0.00149006 on 2 procs for 1 steps with 3 atoms

run 1 pre no post no update no
   Step          Temp          E_pair         E_mol          TotEng         Press     
       729   2547.384       3.4635475      0.0024830112   4.1245809      157.18058    
       730   2509.2618      3.452118       0.023835315    4.1246484      122.23471    
Loop time of 0.00146726 on 2 procs for 1 steps with 3 atoms

run 1 pre yes post no update no
Per MPI rank memory allocation (min/avg/max) = 9.142 | 9.262 | 9.381 Mbytes
   Step          Temp          E_pair         E_mol          TotEng         Press     
       730   2509.2618      3.452118       0.023835315    4.1246484      122.23471    
       731   2394.4687      3.4398941      0.065895341    4.1248082      85.293791    
Loop time of 0.0013733 on 2 procs for 1 steps with 3 atoms

run 1 pre no post no update no
   Step          Temp          E_pair         E_mol          TotEng         Press     
       731   2394.4687      3.4398941      0.065895341    4.1248082      85.293791    
       732   2213.1039      3.4269078      0.12600865     4.1250487      47.263643    
Loop time of 0.00146684 on 2 procs for 1 steps with 3 atoms

run 1 pre no post no update no
   Step          Temp          E_pair         E_mol          TotEng         Press     
       732   2213.1039      3.4269078      0.12600865     4.1250487      47.263643    
       733   1980.2213      3.413173       0.20025308     4.1253534      9.1935807    
Loop time of 0.00146353 on 2 procs for 1 steps with 3 atoms

run 1 pre no post no update no
   Step          Temp          E_pair         E_mol          TotEng         Press     
       733   1980.2213      3.413173       0.20025308     4.1253534      9.1935807    
       734   1714.7607      3.3986844      0.28371342     4.1256983     -27.769528    
Loop time of 0.0014937 on 2 procs for 1 steps with 3 atoms

run 1 pre no post no update no
   Step          Temp          E_pair         E_mol          TotEng         Press     
       734   1714.7607      3.3986844      0.28371342     4.1256983     -27.769528    
       735   1438.2073      3.3834296      0.37082575     4.1260611     -62.435377    
Loop time of 0.00153543 on 2 procs for 1 steps with 3 atoms

run 1 pre no post no update no
   Step          Temp          E_pair         E_mol          TotEng         Press     
       735   1438.2073      3.3834296      0.37082575     4.1260611     -62.435377    
       736   1173.0736      3.3673846      0.45576689     4.1264149     -93.630205    
Loop time of 0.00153249 on 2 procs for 1 steps with 3 atoms

run 1 pre no post no update no
   Step          Temp          E_pair         E_mol          TotEng         Press     
       736   1173.0736      3.3673846      0.45576689     4.1264149     -93.630205    
       737   941.31276      3.3505243      0.53286133     4.1267341     -120.25773    
Loop time of 0.0014338 on 2 procs for 1 steps with 3 atoms

run 1 pre no post no update no
   Step          Temp          E_pair         E_mol          TotEng         Press     
       737   941.31276      3.3505243      0.53286133     4.1267341     -120.25773    
       738   762.77622      3.3328273      0.59697658     4.126997      -141.35774    
Loop time of 0.00144602 on 2 procs for 1 steps with 3 atoms

run 1 pre no post no update no
   Step          Temp          E_pair         E_mol          TotEng         Press     
       738   762.77622      3.3328273      0.59697658     4.126997      -141.35774    
       739   653.82613      3.31428        0.64387883     4.1271862     -156.15845    
Loop time of 0.00144706 on 2 procs for 1 steps with 3 atoms

run 1 pre no post no update no
   Step          Temp          E_pair         E_mol          TotEng         Press     
       739   653.82613      3.31428        0.64387883     4.1271862     -156.15845    
       740   626.20183      3.294876       0.6705234      4.1272853     -164.11911    
Loop time of 0.00140825 on 2 procs for 1 steps with 3 atoms

run 1 pre yes post no update no
Per MPI rank memory allocation (min/avg/max) = 9.142 | 9.262 | 9.381 Mbytes
   Step          Temp          E_pair         E_mol          TotEng         Press     
       740   626.20183      3.294876       0.6705234      4.1272853     -164.11911    
       741   686.22242      3.2746297      0.67525913     4.1272912     -164.95948    
Loop time of 0.00145743 on 2 procs for 1 steps with 3 atoms

run 1 pre no post no update no
   Step          Temp          E_pair         E_mol          TotEng         Press     
       741   686.22242      3.2746297      0.67525913     4.1272912     -164.95948    
       742   834.3834       3.2535661      0.65793215     4.1272033     -158.67556    
Loop time of 0.0015223 on 2 procs for 1 steps with 3 atoms

run 1 pre no post no update no
   Step          Temp          E_pair         E_mol          TotEng         Press     
       742   834.3834       3.2535661      0.65793215     4.1272033     -158.67556    
       743   1065.3776      3.2317258      0.61988124     4.1270288     -145.539      
Loop time of 0.00143363 on 2 procs for 1 steps with 3 atoms

run 1 pre no post no update no
   Step          Temp          E_pair         E_mol          TotEng         Press     
       743   1065.3776      3.2317258      0.61988124     4.1270288     -145.539      
       744   1368.54        3.2091606      0.56382517     4.1267812     -126.08123    
Loop time of 0.00148276 on 2 procs for 1 steps with 3 atoms

run 1 pre no post no update no
   Step          Temp          E_pair         E_mol          TotEng         Press     
       744   1368.54        3.2091606      0.56382517     4.1267812     -126.08123    
       745   1728.6866      3.1859312      0.49364985     4.1264816     -101.06278    
Loop time of 0.00147649 on 2 procs for 1 steps with 3 atoms

run 1 pre no post no update no
   Step          Temp          E_pair         E_mol          TotEng         Press     
       745   1728.6866      3.1859312      0.49364985     4.1264816     -101.06278    
       746   2127.2876      3.1620943      0.41411061     4.1261519     -71.43058     
Loop time of 0.00141915 on 2 procs for 1 steps with 3 atoms

run 1 pre no post no update no
   Step          Temp          E_pair         E_mol          TotEng         Press     
       746   2127.2876      3.1620943      0.41411061     4.1261519     -71.43058     
       747   2543.8913      3.1376984      0.33047102     4.1258169     -38.265074    
Loop time of 0.0014755 on 2 procs for 1 steps with 3 atoms

run 1 pre no post no update no
   Step          Temp          E_pair         E_mol          TotEng         Press     
       747   2543.8913      3.1376984      0.33047102     4.1258169     -38.265074    
       748   2957.6967      3.112777       0.24810459     4.1255062     -2.7214215    
Loop time of 0.00148288 on 2 procs for 1 steps with 3 atoms

run 1 pre no post no update no
   Step          Temp          E_pair         E_mol          TotEng         Press     
       748   2957.6967      3.112777       0.24810459     4.1255062     -2.7214215    
       749   3349.1583      3.0873286      0.1720886      4.1252425      34.031026    
Loop time of 0.00152939 on 2 procs for 1 steps with 3 atoms

run 1 pre no post no update no
   Step          Temp          E_pair         E_mol          TotEng         Press     
       749   3349.1583      3.0873286      0.1720886      4.1252425      34.031026    
       750   3701.5051      3.061314       0.1068204      4.1250486      70.867919    
Loop time of 0.00149436 on 2 procs for 1 steps with 3 atoms

run 1 pre yes post no update no
Per MPI rank memory allocation (min/avg/max) = 9.142 | 9.262 | 9.381 Mbytes
   Step          Temp          E_pair         E_mol          TotEng         Press     
       750   3701.5051      3.061314       0.1068204      4.1250486      70.867919    
       751   4002.0566      3.0346437      0.055685609    4.1249422      106.76274    
Loop time of 0.00138491 on 2 procs for 1 steps with 3 atoms

run 1 pre no post no update no
   Step          Temp          E_pair         E_mol          TotEng         Press     
       751   4002.0566      3.0346437      0.055685609    4.1249422      106.76274    
       752   4243.233       3.007164       0.020804233    4.12493        140.83005    
Loop time of 0.00143497 on 2 procs for 1 steps with 3 atoms

run 1 pre no post no update no
   Step          Temp          E_pair         E_mol          TotEng         Press     
       752   4243.233       3.007164       0.020804233    4.12493        140.83005    
       753   4423.1729      2.9786629      0.0028763831   4.1250192      172.35706    
Loop time of 0.00142992 on 2 procs for 1 steps with 3 atoms

run 1 pre no post no update no
   Step          Temp          E_pair         E_mol          TotEng         Press     
       753   4423.1729      2.9786629      0.0028763831   4.1250192      172.35706    
       754   4545.9007      2.9488527      0.0011422751   4.1252025      200.81954    
Loop time of 0.00144228 on 2 procs for 1 steps with 3 atoms

run 1 pre no post no update no
   Step          Temp          E_pair         E_mol          TotEng         Press     
       754   4545.9007      2.9488527      0.0011422751   4.1252025      200.81954    
       755   4621.0135      2.917376       0.013463752    4.1254655      225.88327    
Loop time of 0.00150308 on 2 procs for 1 steps with 3 atoms

run 1 pre no post no update no
   Step          Temp          E_pair         E_mol          TotEng         Press     
       755   4621.0135      2.917376       0.013463752    4.1254655      225.88327    
       756   4662.8939      2.88381        0.036525715    4.1257884      247.38977    
Loop time of 0.00143099 on 2 procs for 1 steps with 3 atoms

run 1 pre no post no update no
   Step          Temp          E_pair         E_mol          TotEng         Press     
       756   4662.8939      2.88381        0.036525715    4.1257884      247.38977    
       757   4689.4897      2.847669       0.0661466      4.1261439      265.32785    
Loop time of 0.00142212 on 2 procs for 1 steps with 3 atoms

run 1 pre no post no update no
   Step          Temp          E_pair         E_mol          TotEng         Press     
       757   4689.4897      2.847669       0.0661466      4.1261439      265.32785    
       758   4720.7412      2.8084146      0.097677618    4.1264996      279.79384    
Loop time of 0.00150598 on 2 procs for 1 steps with 3 atoms

run 1 pre no post no update no
   Step          Temp          E_pair         E_mol          TotEng         Press     
       758   4720.7412      2.8084146      0.097677618    4.1264996      279.79384    
       759   4776.7682      2.7654711      0.12646149     4.126824       290.94402    
Loop time of 0.00142939 on 2 procs for 1 steps with 3 atoms

run 1 pre no post no update no
   Step          Temp          E_pair         E_mol          TotEng         Press     
       759   4776.7682      2.7654711      0.12646149     4.126824       290.94402    
       760   4875.9618      2.7182347      0.14831372     4.1270835      298.94338    
Loop time of 0.00146507 on 2 procs for 1 steps with 3 atoms

run 1 pre yes post no update no
Per MPI rank memory allocation (min/avg/max) = 9.142 | 9.262 | 9.381 Mbytes
   Step          Temp          E_pair         E_mol          TotEng         Press     
       760   4875.9618      2.7182347      0.14831372     4.1270835      298.94338    
       761   5033.1443      2.666096       0.15998388     4.1272499      303.91653    
Loop time of 0.0013922 on 2 procs for 1 steps with 3 atoms

run 1 pre no post no update no
   Step          Temp          E_pair         E_mol          TotEng         Press     
       761   5033.1443      2.666096       0.15998388     4.1272499      303.91653    
       762   5257.9682      2.608458       0.15955262     4.1273021      305.90557    
Loop time of 0.00143875 on 2 procs for 1 steps with 3 atoms

run 1 pre no post no update no
   Step          Temp          E_pair         E_mol          TotEng         Press     
       762   5257.9682      2.608458       0.15955262     4.1273021      305.90557    
       763   5553.7149      2.5447574      0.14672239     4.1272278      304.84002    
Loop time of 0.00148499 on 2 procs for 1 steps with 3 atoms

run 1 pre no post no update no
   Step          Temp          E_pair         E_mol          TotEng         Press     
       763   5553.7149      2.5447574      0.14672239     4.1272278      304.84002    
       764   5916.6213      2.4744896      0.12296785     4.1270241      300.52291    
Loop time of 0.00144064 on 2 procs for 1 steps with 3 atoms

run 1 pre no post no update no
   Step          Temp          E_pair         E_mol          TotEng         Press     
       764   5916.6213      2.4744896      0.12296785     4.1270241      300.52291    
       765   6335.8155      2.3972413      0.091524285    4.1267025      292.63581    
Loop time of 0.00405297 on 2 procs for 1 steps with 3 atoms

run 1 pre no post no update no
   Step          Temp          E_pair         E_mol          TotEng         Press     
       765   6335.8155      2.3972413      0.091524285    4.1267025      292.63581    
       766   6793.8777      2.3127177      0.057208431    4.1262813      280.76283    
Loop time of 0.00304454 on 2 procs for 1 steps with 3 atoms

run 1 pre no post no update no
   Step          Temp          E_pair         E_mol          TotEng         Press     
       766   6793.8777      2.3127177      0.057208431    4.1262813      280.76283    
       767   7267.9772      2.2207867      0.026083294    4.1257896      264.43323    
Loop time of 0.00300128 on 2 procs for 1 steps with 3 atoms

run 1 pre no post no update no
   Step          Temp          E_pair         E_mol          TotEng         Press     
       767   7267.9772      2.2207867      0.026083294    4.1257896      264.43323    
       768   7731.4771      2.121522       0.0049941961   4.1252599      243.1789     
Loop time of 0.00289879 on 2 procs for 1 steps with 3 atoms

run 1 pre no post no update no
   Step          Temp          E_pair         E_mol          TotEng         Press     
       768   7731.4771      2.121522       0.0049941961   4.1252599      243.1789     
       769   8155.85        2.0152594      0.0010153878   4.1247275      216.60264    
Loop time of 0.00296624 on 2 procs for 1 steps with 3 atoms

run 1 pre no post no update no
   Step          Temp          E_pair         E_mol          TotEng         Press     
       769   8155.85        2.0152594      0.0010153878   4.1247275      216.60264    
       770   8512.7321      1.9026622      0.020853321    4.1242295      184.45168    
Loop time of 0.00283421 on 2 procs for 1 steps with 3 atoms

run 1 pre yes post no update no
Per MPI rank memory allocation (min/avg/max) = 9.142 | 9.262 | 9.381 Mbytes
   Step          Temp          E_pair         E_mol          TotEng         Press     
       770   8512.7321      1.9026622      0.020853321    4.1242295      184.45168    
       771   8775.965       1.7847858      0.07025397     4.1238048      146.69016    
Loop time of 0.00294524 on 2 procs for 1 steps with 3 atoms

run 1 pre no post no update no
   Step          Temp          E_pair         E_mol          TotEng         Press     
       771   8775.965       1.7847858      0.07025397     4.1238048      146.69016    
       772   8923.6428      1.6631504      0.15345849     4.1235516      103.56717    
Loop time of 0.0028741 on 2 procs for 1 steps with 3 atoms

run 1 pre no post no update no
   Step          Temp          E_pair         E_mol          TotEng         Press     
       772   8923.6428      1.6631504      0.15345849     4.1235516      103.56717    
       773   8940.8226      1.5397947      0.27274997     4.1239287      55.682883    
Loop time of 0.00323422 on 2 procs for 1 steps with 3 atoms

run 1 pre no post no update no
   Step          Temp          E_pair         E_mol          TotEng         Press     
       773   8940.8226      1.5397947      0.27274997     4.1239287      55.682883    
       774   8824.9989      1.4172693      0.42816001     4.1268706      4.0708253    
Loop time of 0.00282609 on 2 procs for 1 steps with 3 atoms

run 1 pre no post no update no
   Step          Temp          E_pair         E_mol          TotEng         Press     
       774   8824.9989      1.4172693      0.42816001     4.1268706      4.0708253    
       775   8596.7186      1.2984805      0.61752781     4.1384344     -49.7047      
Loop time of 0.00298938 on 2 procs for 1 steps with 3 atoms

run 1 pre no post no update no
   Step          Temp          E_pair         E_mol          TotEng         Press     
       775   8596.7186      1.2984805      0.61752781     4.1384344     -49.7047      
       776   8310.9469      1.186269       0.83735535     4.1721728     -103.57019    
Loop time of 0.00289862 on 2 procs for 1 steps with 3 atoms

run 1 pre no post no update no
   Step          Temp          E_pair         E_mol          TotEng         Press     
       776   8310.9469      1.186269       0.83735535     4.1721728     -103.57019    
       777   8051.6347      1.0827225      1.0849248      4.2491582     -155.37547    
Loop time of 0.0028722 on 2 procs for 1 steps with 3 atoms

run 1 pre no post no update no
   Step          Temp          E_pair         E_mol          TotEng         Press     
       777   8051.6347      1.0827225      1.0849248      4.2491582     -155.37547    
       778   7891.5046      0.98873375     1.3611268      4.3899746     -203.81383    
Loop time of 0.00287184 on 2 procs for 1 steps with 3 atoms

run 1 pre no post no update no
   Step          Temp          E_pair         E_mol          TotEng         Press     
       778   7891.5046      0.98873375     1.3611268      4.3899746     -203.81383    
       779   7832.8842      0.9046073      1.6713402      4.600907      -249.13843    
Loop time of 0.00283507 on 2 procs for 1 steps with 3 atoms

run 1 pre no post no update no
   Step          Temp          E_pair         E_mol          TotEng         Press     
       779   7832.8842      0.9046073      1.6713402      4.600907      -249.13843    
       780   7800.8554      0.83175181     2.0216893      4.8701205     -292.41991    
Loop time of 0.00289872 on 2 procs for 1 steps with 3 atoms

run 1 pre yes post no update no
Per MPI rank memory allocation (min/avg/max) = 9.142 | 9.262 | 9.381 Mbytes
   Step          Temp          E_pair         E_mol          TotEng         Press     
       780   7800.8554      0.83175181     2.0216893      4.8701205     -292.41991    
       781   7734.943       0.77350538     2.4146029      5.187748      -333.52376    
Loop time of 0.00276323 on 2 procs for 1 steps with 3 atoms

run 0 pre yes post no
PPPM initialization ...
  using 12-bit tables for long-range coulomb (src/kspace.cpp:342)
  G vector (1/distance) = 0.28934131
  grid = 18 18 18
  stencil order = 5
  estimated absolute RMS force accuracy = 7.7110449e-05
  estimated relative force accuracy = 5.3550243e-06
  using double precision KISS FFT
  3d grid and FFT values/proc = 10000 2916
Generated 0 of 21 mixed pair_coeff terms from geometric mixing rule
Per MPI rank memory allocation (min/avg/max) = 9.142 | 9.262 | 9.381 Mbytes
   Step          Temp          E_pair         E_mol          TotEng         Press     
       781   7734.943       0.77350538     2.4146029      5.187748      -333.52376    
Loop time of 2.339e-06 on 2 procs for 0 steps with 3 atoms

run 0 pre yes post no
PPPM initialization ...
  using 12-bit tables for long-range coulomb (src/kspace.cpp:342)
  G vector (1/distance) = 0.28934131
  grid = 18 18 18
  stencil order = 5
  estimated absolute RMS force accuracy = 7.7110449e-05
  estimated relative force accuracy = 5.3550243e-06
  using double precision KISS FFT
  3d grid and FFT values/proc = 10000 2916
Generated 0 of 21 mixed pair_coeff terms from geometric mixing rule
Per MPI rank memory allocation (min/avg/max) = 9.142 | 9.262 | 9.381 Mbytes
   Step          Temp          E_pair         E_mol          TotEng         Press     
       781   7734.943       0.77350538     2.4146029      5.187748      -333.52376    
Loop time of 2.179e-06 on 2 procs for 0 steps with 3 atoms

clear
OMP_NUM_THREADS environment is not set. Defaulting to 1 thread. (src/comm.cpp:98)
  using 1 OpenMP thread(s) per MPI task
units metal
atom_style full
boundary p p p
read_data /tmp/mustard.13e25e9621594b2cbe116fd2c800b3e6
Reading data file ...
  triclinic box = (0 0 0) to (25.319 25.319 25.319) with tilt (0 0 0)
  1 by 1 by 2 MPI processor grid
  reading atoms ...
  3 atoms
  reading velocities ...
  3 velocities
  scanning bonds ...
  1 = max bonds/atom
  reading bonds ...
  1 bonds
Finding 1-2 1-3 1-4 neighbors ...
  special bond factors lj:    0        0        0       
  special bond factors coul:  0        0        0       
     1 = max # of 1-2 neighbors
     0 = max # of 1-3 neighbors
     0 = max # of 1-4 neighbors
     1 = max # of special neighbors
  special bonds CPU = 0.000 seconds
  read_data CPU = 0.001 seconds

change_box all triclinic
Changing box ...
  triclinic box = (0 0 0) to (25.319 25.319 25.319) with tilt (0 0 0)
include ff.lmp
##############################################################################################
#### Atoms' types - mass - charge
##############################################################################################
#@ 7   atom types

variable Ba  equal 1
variable Zr  equal 2
variable  Y  equal 3
variable O1  equal 4
variable O2  equal 5
variable O3  equal 6
variable H1  equal 7

##############################################################################################
#### Atoms' masses
##############################################################################################

mass  ${Ba}   137.327
mass  1   137.327
mass  ${Zr}    91.224
mass  2    91.224
mass  ${Y}     88.910
mass  3     88.910
mass  ${O1}    100000
mass  4    100000
# mass  ${O1}    15.996
mass  ${O2}    100000
mass  5    100000
# mass  ${O2}    15.996
mass  ${O3}    15.996
mass  6    15.996
mass  ${H1}     1.008
mass  7     1.008

##############################################################################################
#### Atoms' charges
##############################################################################################

set type ${Ba}  charge     2.000000
set type 1  charge     2.000000
Setting atom values ...
  0 settings made for charge
set type ${Zr}  charge     4.000000
set type 2  charge     4.000000
Setting atom values ...
  0 settings made for charge
set type ${Y}   charge     3.000000
set type 3   charge     3.000000
Setting atom values ...
  0 settings made for charge
set type ${O1}  charge    -1.308698
set type 4  charge    -1.308698
Setting atom values ...
  1 settings made for charge
set type ${O2}  charge    -2.000000
set type 5  charge    -2.000000
Setting atom values ...
  1 settings made for charge
set type ${O3}  charge    -2.000000
set type 6  charge    -2.000000
Setting atom values ...
  0 settings made for charge
set type ${H1}  charge     0.308698
set type 7  charge     0.308698
Setting atom values ...
  1 settings made for charge

##############################################################################################
#### Covalent bonds parameters
##############################################################################################
#@  1   bond types

bond_style harmonic
#@ O1 - H1
# bond_coeff   1      11.504000      0.985357
bond_coeff   1      23.008000      0.985357

##############################################################################################
# Pair potentials
##############################################################################################

variable rmin  equal  8.
variable rmax  equal 10.

pair_style hybrid/overlay buck/mdf ${rmin} ${rmax} lennard/mdf ${rmin} ${rmax} coul/long ${rmax}
pair_style hybrid/overlay buck/mdf 8 ${rmax} lennard/mdf ${rmin} ${rmax} coul/long ${rmax}
pair_style hybrid/overlay buck/mdf 8 10 lennard/mdf ${rmin} ${rmax} coul/long ${rmax}
pair_style hybrid/overlay buck/mdf 8 10 lennard/mdf 8 ${rmax} coul/long ${rmax}
pair_style hybrid/overlay buck/mdf 8 10 lennard/mdf 8 10 coul/long ${rmax}
pair_style hybrid/overlay buck/mdf 8 10 lennard/mdf 8 10 coul/long 10

##############################################################################################
# Buckingham interaction potentials
pair_coeff  ${Ba}  ${O1}  buck/mdf   688.21662   0.392014   0.000
pair_coeff  1  ${O1}  buck/mdf   688.21662   0.392014   0.000
pair_coeff  1  4  buck/mdf   688.21662   0.392014   0.000
pair_coeff  ${Ba}  ${O2}  buck/mdf   972.19945   0.392014   0.000
pair_coeff  1  ${O2}  buck/mdf   972.19945   0.392014   0.000
pair_coeff  1  5  buck/mdf   972.19945   0.392014   0.000
pair_coeff  ${Ba}  ${O3}  buck/mdf   972.19945   0.392014   0.000
pair_coeff  1  ${O3}  buck/mdf   972.19945   0.392014   0.000
pair_coeff  1  6  buck/mdf   972.19945   0.392014   0.000

pair_coeff  ${Y}   ${O1}  buck/mdf   2972.3808   0.267317   0.000
pair_coeff  3   ${O1}  buck/mdf   2972.3808   0.267317   0.000
pair_coeff  3   4  buck/mdf   2972.3808   0.267317   0.000
pair_coeff  ${Y}   ${O2}  buck/mdf   4121.8373   0.280386   0.000
pair_coeff  3   ${O2}  buck/mdf   4121.8373   0.280386   0.000
pair_coeff  3   5  buck/mdf   4121.8373   0.280386   0.000
pair_coeff  ${Y}   ${O3}  buck/mdf   4121.8373   0.280386   0.000
pair_coeff  3   ${O3}  buck/mdf   4121.8373   0.280386   0.000
pair_coeff  3   6  buck/mdf   4121.8373   0.280386   0.000

pair_coeff  ${Zr}  ${O1}  buck/mdf   2195.8712   0.298760   0.000
pair_coeff  2  ${O1}  buck/mdf   2195.8712   0.298760   0.000
pair_coeff  2  4  buck/mdf   2195.8712   0.298760   0.000
pair_coeff  ${Zr}  ${O2}  buck/mdf   3250.8545   0.298760   0.000
pair_coeff  2  ${O2}  buck/mdf   3250.8545   0.298760   0.000
pair_coeff  2  5  buck/mdf   3250.8545   0.298760   0.000
pair_coeff  ${Zr}  ${O3}  buck/mdf   3250.8545   0.298760   0.000
pair_coeff  2  ${O3}  buck/mdf   3250.8545   0.298760   0.000
pair_coeff  2  6  buck/mdf   3250.8545   0.298760   0.000

pair_coeff  ${O1}  ${O1}  buck/mdf   22764.000   0.149000   0.000
pair_coeff  4  ${O1}  buck/mdf   22764.000   0.149000   0.000
pair_coeff  4  4  buck/mdf   22764.000   0.149000   0.000
pair_coeff  ${O1}  ${O2}  buck/mdf   22764.000   0.149000   0.000
pair_coeff  4  ${O2}  buck/mdf   22764.000   0.149000   0.000
pair_coeff  4  5  buck/mdf   22764.000   0.149000   0.000
pair_coeff  ${O1}  ${O3}  buck/mdf   22764.000   0.149000   0.000
pair_coeff  4  ${O3}  buck/mdf   22764.000   0.149000   0.000
pair_coeff  4  6  buck/mdf   22764.000   0.149000   0.000

pair_coeff  ${O2}  ${O2}  buck/mdf   22764.000   0.149000   0.000
pair_coeff  5  ${O2}  buck/mdf   22764.000   0.149000   0.000
pair_coeff  5  5  buck/mdf   22764.000   0.149000   0.000
pair_coeff  ${O2}  ${O3}  buck/mdf   22764.000   0.149000   0.000
pair_coeff  5  ${O3}  buck/mdf   22764.000   0.149000   0.000
pair_coeff  5  6  buck/mdf   22764.000   0.149000   0.000

pair_coeff  ${O3}  ${O3}  buck/mdf   22764.000   0.149000   0.000
pair_coeff  6  ${O3}  buck/mdf   22764.000   0.149000   0.000
pair_coeff  6  6  buck/mdf   22764.000   0.149000   0.000

##############################################################################################
# 12-6 Lennard-Jones potentials
pair_coeff  ${O1}  ${H1}  lennard/mdf    6.391   0.000
pair_coeff  4  ${H1}  lennard/mdf    6.391   0.000
pair_coeff  4  7  lennard/mdf    6.391   0.000
pair_coeff  ${O2}  ${H1}  lennard/mdf    6.391   0.000
pair_coeff  5  ${H1}  lennard/mdf    6.391   0.000
pair_coeff  5  7  lennard/mdf    6.391   0.000
pair_coeff  ${O3}  ${H1}  lennard/mdf    7.800   0.000
pair_coeff  6  ${H1}  lennard/mdf    7.800   0.000
pair_coeff  6  7  lennard/mdf    7.800   0.000

##############################################################################################
# Coulombic interaction
pair_coeff      *      *  coul/long

#########################################################################################################
# Parameters for reciprocal space electrostatics
#########################################################################################################

kspace_style pppm 1.0e-5
kspace_modify fftbench no
fix md all nve
timestep 0.0002

change_box all x final 0.0 25.319 y final 0.0 25.319 z final 0.0 25.319 xy final 0.0 xz final 0.0 yz final 0.0
Changing box ...
  triclinic box = (0 0 0) to (25.319 25.319 25.319) with tilt (0 0 0)
  triclinic box = (0 0 0) to (25.319 25.319 25.319) with tilt (0 0 0)
  triclinic box = (0 0 0) to (25.319 25.319 25.319) with tilt (0 0 0)
  triclinic box = (0 0 0) to (25.319 25.319 25.319) with tilt (0 0 0)
  triclinic box = (0 0 0) to (25.319 25.319 25.319) with tilt (0 0 0)
  triclinic box = (0 0 0) to (25.319 25.319 25.319) with tilt (0 0 0)
reset_timestep 781
fix ux all store/state 1 xu yu zu
fix ext all external pf/callback 1 1
fix_modify ext energy no
fix_modify ext virial no
compute get_pe all pe

run 0 pre yes post no
PPPM initialization ...
WARNING: System is not charge neutral, net charge = -3 (src/kspace.cpp:327)
  using 12-bit tables for long-range coulomb (src/kspace.cpp:342)
  G vector (1/distance) = 0.28934131
  grid = 18 18 18
  stencil order = 5
  estimated absolute RMS force accuracy = 7.7110449e-05
  estimated relative force accuracy = 5.3550243e-06
  using double precision KISS FFT
  3d grid and FFT values/proc = 10000 2916
Generated 0 of 21 mixed pair_coeff terms from geometric mixing rule
Neighbor list info ...
  update: every = 1 steps, delay = 0 steps, check = yes
  max neighbors/atom: 2000, page size: 100000
  master list distance cutoff = 12
  ghost atom cutoff = 12
  binsize = 6, bins = 5 5 5
  3 neighbor lists, perpetual/occasional/extra = 3 0 0
  (1) pair buck/mdf, perpetual, skip from (3)
      attributes: half, newton on
      pair build: skip
      stencil: none
      bin: none
  (2) pair lennard/mdf, perpetual, skip from (3)
      attributes: half, newton on
      pair build: skip
      stencil: none
      bin: none
  (3) pair coul/long, perpetual
      attributes: half, newton on
      pair build: half/bin/newton/tri
      stencil: half/bin/3d/tri
      bin: standard
Per MPI rank memory allocation (min/avg/max) = 9.142 | 9.262 | 9.381 Mbytes
   Step          Temp          E_pair         E_mol          TotEng         Press     
       781   7778.6723      0.88021515     1.8141899      4.7053497     -270.49297    
Loop time of 2.099e-06 on 2 procs for 0 steps with 3 atoms

run 0 pre yes post no
PPPM initialization ...
  using 12-bit tables for long-range coulomb (src/kspace.cpp:342)
  G vector (1/distance) = 0.28934131
  grid = 18 18 18
  stencil order = 5
  estimated absolute RMS force accuracy = 7.7110449e-05
  estimated relative force accuracy = 5.3550243e-06
  using double precision KISS FFT
  3d grid and FFT values/proc = 10000 2916
Generated 0 of 21 mixed pair_coeff terms from geometric mixing rule
Per MPI rank memory allocation (min/avg/max) = 9.142 | 9.262 | 9.381 Mbytes
   Step          Temp          E_pair         E_mol          TotEng         Press     
       781   7778.6723      0.88021515     1.8141899      4.7053497     -270.49297    
Loop time of 1.929e-06 on 2 procs for 0 steps with 3 atoms

run 1 pre yes post no update no
Per MPI rank memory allocation (min/avg/max) = 9.142 | 9.262 | 9.381 Mbytes
   Step          Temp          E_pair         E_mol          TotEng         Press     
       781   7734.943       0.88021515     1.8141899      4.6940447     -271.23692    
       782   7675.5858      0.96601764     1.5093309      4.4596432     -233.02934    
Loop time of 0.00278224 on 2 procs for 1 steps with 3 atoms

run 1 pre no post no update no
   Step          Temp          E_pair         E_mol          TotEng         Press     
       782   7675.5858      0.96601764     1.5093309      4.4596432     -233.02934    
       783   7714.0976      1.0622705      1.2364327      4.292954      -190.96459    
Loop time of 0.00286881 on 2 procs for 1 steps with 3 atoms

run 1 pre no post no update no
   Step          Temp          E_pair         E_mol          TotEng         Press     
       783   7714.0976      1.0622705      1.2364327      4.292954      -190.96459    
       784   7883.3459      1.1680739      0.98866123     4.19474       -144.33552    
Loop time of 0.00283092 on 2 procs for 1 steps with 3 atoms

run 1 pre no post no update no
   Step          Temp          E_pair         E_mol          TotEng         Press     
       784   7883.3459      1.1680739      0.98866123     4.19474       -144.33552    
       785   8131.4411      1.2826372      0.76309        4.1478697     -93.930612    
Loop time of 0.00275266 on 2 procs for 1 steps with 3 atoms

run 1 pre no post no update no
   Step          Temp          E_pair         E_mol          TotEng         Press     
       785   8131.4411      1.2826372      0.76309        4.1478697     -93.930612    
       786   8372.6739      1.4041625      0.56145898     4.1301276     -41.730513    
Loop time of 0.00279043 on 2 procs for 1 steps with 3 atoms

run 1 pre no post no update no
   Step          Temp          E_pair         E_mol          TotEng         Press     
       786   8372.6739      1.4041625      0.56145898     4.1301276     -41.730513    
       787   8538.0641      1.5299792      0.38772337     4.1249654      10.037034    
Loop time of 0.00277739 on 2 procs for 1 steps with 3 atoms

run 1 pre no post no update no
   Step          Temp          E_pair         E_mol          TotEng         Press     
       787   8538.0641      1.5299792      0.38772337     4.1249654      10.037034    
       788   8592.0001      1.6572022      0.24552057     4.1239291      59.516775    
Loop time of 0.00287155 on 2 procs for 1 steps with 3 atoms

run 1 pre no post no update no
   Step          Temp          E_pair         E_mol          TotEng         Press     
       788   8592.0001      1.6572022      0.24552057     4.1239291      59.516775    
       789   8525.1211      1.783232       0.13680656     4.1239553      105.36948    
Loop time of 0.00413795 on 2 procs for 1 steps with 3 atoms

run 1 pre no post no update no
   Step          Temp          E_pair         E_mol          TotEng         Press     
       789   8525.1211      1.783232       0.13680656     4.1239553      105.36948    
       790   8342.9807      1.9059606      0.061453564    4.124244       146.70142    
Loop time of 0.00208045 on 2 procs for 1 steps with 3 atoms

run 1 pre yes post no update no
Per MPI rank memory allocation (min/avg/max) = 9.142 | 9.262 | 9.381 Mbytes
   Step          Temp          E_pair         E_mol          TotEng         Press     
       790   8342.9807      1.9059606      0.061453564    4.124244       146.70142    
       791   8059.3976      2.023794       0.017319754    4.1246316      182.98265    
Loop time of 0.00455029 on 2 procs for 1 steps with 3 atoms

run 1 pre no post no update no
   Step          Temp          E_pair         E_mol          TotEng         Press     
       791   8059.3976      2.023794       0.017319754    4.1246316      182.98265    
       792   7693.5857      2.1356055      0.00052475316  4.1250782      213.99001    
Loop time of 0.00201895 on 2 procs for 1 steps with 3 atoms

run 1 pre no post no update no
   Step          Temp          E_pair         E_mol          TotEng         Press     
       792   7693.5857      2.1356055      0.00052475316  4.1250782      213.99001    
       793   7268.4915      2.2406603      0.005841168    4.125554       239.75442    
Loop time of 0.00298647 on 2 procs for 1 steps with 3 atoms

run 1 pre no post no update no
   Step          Temp          E_pair         E_mol          TotEng         Press     
       793   7268.4915      2.2406603      0.005841168    4.125554       239.75442    
       794   6809.1908      2.3385508      0.027165313    4.1260301      260.50258    
Loop time of 0.00283351 on 2 procs for 1 steps with 3 atoms

run 1 pre no post no update no
   Step          Temp          E_pair         E_mol          TotEng         Press     
       794   6809.1908      2.3385508      0.027165313    4.1260301      260.50258    
       795   6341.1393      2.4291276      0.058034053    4.1264748      276.59332    
Loop time of 0.00293638 on 2 procs for 1 steps with 3 atoms

run 1 pre no post no update no
   Step          Temp          E_pair         E_mol          TotEng         Press     
       795   6341.1393      2.4291276      0.058034053    4.1264748      276.59332    
       796   5888.3643      2.5124489      0.092149628    4.1268601      288.45363    
Loop time of 0.00280214 on 2 procs for 1 steps with 3 atoms

run 1 pre no post no update no
   Step          Temp          E_pair         E_mol          TotEng         Press     
       796   5888.3643      2.5124489      0.092149628    4.1268601      288.45363    
       797   5471.7513      2.588729       0.1238712      4.127159       296.51825    
Loop time of 0.00149855 on 2 procs for 1 steps with 3 atoms

run 1 pre no post no update no
   Step          Temp          E_pair         E_mol          TotEng         Press     
       797   5471.7513      2.588729       0.1238712      4.127159       296.51825    
       798   5107.5829      2.6583067      0.14863293     4.1273535      301.17866    
Loop time of 0.00147091 on 2 procs for 1 steps with 3 atoms

run 1 pre no post no update no
   Step          Temp          E_pair         E_mol          TotEng         Press     
       798   5107.5829      2.6583067      0.14863293     4.1273535      301.17866    
       799   4806.4682      2.7216111      0.16325405     4.1274347      302.74416    
Loop time of 0.00150432 on 2 procs for 1 steps with 3 atoms

run 1 pre no post no update no
   Step          Temp          E_pair         E_mol          TotEng         Press     
       799   4806.4682      2.7216111      0.16325405     4.1274347      302.74416    
       800   4572.763       2.7791342      0.16611635     4.1274026      301.41852    
Loop time of 0.00146435 on 2 procs for 1 steps with 3 atoms

run 1 pre yes post no update no
Per MPI rank memory allocation (min/avg/max) = 9.142 | 9.262 | 9.381 Mbytes
   Step          Temp          E_pair         E_mol          TotEng         Press     
       800   4572.763       2.7791342      0.16611635     4.1274026      301.41852    
       801   4404.5296      2.8314085      0.15719738     4.1272662      297.29324    
Loop time of 0.00143575 on 2 procs for 1 steps with 3 atoms

run 1 pre no post no update no
   Step          Temp          E_pair         E_mol          TotEng         Press     
       801   4404.5296      2.8314085      0.15719738     4.1272662      297.29324    
       802   4294.029       2.8789871      0.1379621      4.1270428      290.35712    
Loop time of 0.00148509 on 2 procs for 1 steps with 3 atoms

run 1 pre no post no update no
   Step          Temp          E_pair         E_mol          TotEng         Press     
       802   4294.029       2.8789871      0.1379621      4.1270428      290.35712    
       803   4228.6871      2.922426       0.11112906     4.1267564      280.5202     
Loop time of 0.00147405 on 2 procs for 1 steps with 3 atoms

run 1 pre no post no update no
   Step          Temp          E_pair         E_mol          TotEng         Press     
       803   4228.6871      2.922426       0.11112906     4.1267564      280.5202     
       804   4192.4309      2.9622677      0.080338256    4.1264344      267.64883    
Loop time of 0.001553 on 2 procs for 1 steps with 3 atoms

run 1 pre no post no update no
   Step          Temp          E_pair         E_mol          TotEng         Press     
       804   4192.4309      2.9622677      0.080338256    4.1264344      267.64883    
       805   4167.2642      2.999028       0.049755106    4.1261054      251.60788    
Loop time of 0.00155645 on 2 procs for 1 steps with 3 atoms

run 1 pre no post no update no
   Step          Temp          E_pair         E_mol          TotEng         Press     
       805   4167.2642      2.999028       0.049755106    4.1261054      251.60788    
       806   4134.9375      3.0331869      0.02364794     4.1258001      232.30565    
Loop time of 0.00160818 on 2 procs for 1 steps with 3 atoms

run 1 pre no post no update no
   Step          Temp          E_pair         E_mol          TotEng         Press     
       806   4134.9375      3.0331869      0.02364794     4.1258001      232.30565    
       807   4078.57        3.065171       0.0059759717   4.12554        209.73644    
Loop time of 0.0016349 on 2 procs for 1 steps with 3 atoms

run 1 pre no post no update no
   Step          Temp          E_pair         E_mol          TotEng         Press     
       807   4078.57        3.065171       0.0059759717   4.12554        209.73644    
       808   3984.0959      3.0953561      2.0777803e-05  4.1253465      184.01796    
Loop time of 0.00158595 on 2 procs for 1 steps with 3 atoms

run 1 pre no post no update no
   Step          Temp          E_pair         E_mol          TotEng         Press     
       808   3984.0959      3.0953561      2.0777803e-05  4.1253465      184.01796    
       809   3841.4283      3.1240591      0.0080885128   4.1252348      155.41883    
Loop time of 0.00161893 on 2 procs for 1 steps with 3 atoms

run 1 pre no post no update no
   Step          Temp          E_pair         E_mol          TotEng         Press     
       809   3841.4283      3.1240591      0.0080885128   4.1252348      155.41883    
       810   3645.2646      3.1515323      0.0313028      4.12521        124.37439    
Loop time of 0.00155459 on 2 procs for 1 steps with 3 atoms

run 1 pre yes post no update no
Per MPI rank memory allocation (min/avg/max) = 9.142 | 9.262 | 9.381 Mbytes
   Step          Temp          E_pair         E_mol          TotEng         Press     
       810   3645.2646      3.1515323      0.0313028      4.12521        124.37439    
       811   3395.4853      3.1779701      0.06950035     4.1252723      91.489713    
Loop time of 0.00171244 on 2 procs for 1 steps with 3 atoms

run 1 pre no post no update no
   Step          Temp          E_pair         E_mol          TotEng         Press     
       811   3395.4853      3.1779701      0.06950035     4.1252723      91.489713    
       812   3097.1333      3.2035086      0.1212333      4.1254137      57.528448    
Loop time of 0.00175124 on 2 procs for 1 steps with 3 atoms

run 1 pre no post no update no
   Step          Temp          E_pair         E_mol          TotEng         Press     
       812   3097.1333      3.2035086      0.1212333      4.1254137      57.528448    
       813   2759.9869      3.2282342      0.18387458     4.1256214      23.38898     
Loop time of 0.00156481 on 2 procs for 1 steps with 3 atoms

run 1 pre no post no update no
   Step          Temp          E_pair         E_mol          TotEng         Press     
       813   2759.9869      3.2282342      0.18387458     4.1256214      23.38898     
       814   2397.7719      3.2521907      0.25381542     4.1258788     -9.9311467    
Loop time of 0.00158828 on 2 procs for 1 steps with 3 atoms

run 1 pre no post no update no
   Step          Temp          E_pair         E_mol          TotEng         Press     
       814   2397.7719      3.2521907      0.25381542     4.1258788     -9.9311467    
       815   2027.0788      3.2753855      0.32673814     4.1261646     -41.380124    
Loop time of 0.00173465 on 2 procs for 1 steps with 3 atoms

run 1 pre no post no update no
   Step          Temp          E_pair         E_mol          TotEng         Press     
       815   2027.0788      3.2753855      0.32673814     4.1261646     -41.380124    
       816   1666.0714      3.2977981      0.39794252     4.1264539     -69.902952    
Loop time of 0.00191277 on 2 procs for 1 steps with 3 atoms

run 1 pre no post no update no
   Step          Temp          E_pair         E_mol          TotEng         Press     
       816   1666.0714      3.2977981      0.39794252     4.1264539     -69.902952    
       817   1333.0854      3.3193958      0.4627006      4.126726      -94.495134    
Loop time of 0.00181619 on 2 procs for 1 steps with 3 atoms

run 1 pre no post no update no
   Step          Temp          E_pair         E_mol          TotEng         Press     
       817   1333.0854      3.3193958      0.4627006      4.126726      -94.495134    
       818   1045.2213      3.3401319      0.51661365     4.1269565     -114.25629    
Loop time of 0.00158897 on 2 procs for 1 steps with 3 atoms

run 1 pre no post no update no
   Step          Temp          E_pair         E_mol          TotEng         Press     
       818   1045.2213      3.3401319      0.51661365     4.1269565     -114.25629    
       819   817.03437      3.3599643      0.55594482     4.127129      -128.43866    
Loop time of 0.0015298 on 2 procs for 1 steps with 3 atoms

run 1 pre no post no update no
   Step          Temp          E_pair         E_mol          TotEng         Press     
       819   817.03437      3.3599643      0.55594482     4.127129      -128.43866    
       820   659.4163       3.3788537      0.57790334     4.1272295     -136.48888    
Loop time of 0.00151057 on 2 procs for 1 steps with 3 atoms

run 1 pre yes post no update no
Per MPI rank memory allocation (min/avg/max) = 9.142 | 9.262 | 9.381 Mbytes
   Step          Temp          E_pair         E_mol          TotEng         Press     
       820   659.4163       3.3788537      0.57790334     4.1272295     -136.48888    
       821   578.74848      3.3967705      0.58085988     4.1272487     -138.07895    
Loop time of 0.00151501 on 2 procs for 1 steps with 3 atoms

run 1 pre no post no update no
   Step          Temp          E_pair         E_mol          TotEng         Press     
       821   578.74848      3.3967705      0.58085988     4.1272487     -138.07895    
       822   576.38633      3.4136985      0.56447746     4.1271835     -133.12501    
Loop time of 0.00158464 on 2 procs for 1 steps with 3 atoms

run 1 pre no post no update no
   Step          Temp          E_pair         E_mol          TotEng         Press     
       822   576.38633      3.4136985      0.56447746     4.1271835     -133.12501    
       823   648.51093      3.4296363      0.52974882     4.1270384     -121.79245    
Loop time of 0.00157479 on 2 procs for 1 steps with 3 atoms

run 1 pre no post no update no
   Step          Temp          E_pair         E_mol          TotEng         Press     
       823   648.51093      3.4296363      0.52974882     4.1270384     -121.79245    
       824   786.35712      3.4445966      0.47893751     4.1268233     -104.48708    
Loop time of 0.00155634 on 2 procs for 1 steps with 3 atoms

run 1 pre no post no update no
   Step          Temp          E_pair         E_mol          TotEng         Press     
       824   786.35712      3.4445966      0.47893751     4.1268233     -104.48708    
       825   976.80077      3.4586017      0.4154272      4.1265517     -81.833171    
Loop time of 0.00163285 on 2 procs for 1 steps with 3 atoms

run 1 pre no post no update no
   Step          Temp          E_pair         E_mol          TotEng         Press     
       825   976.80077      3.4586017      0.4154272      4.1265517     -81.833171    
       826   1203.2626      3.4716855      0.34348987     4.1262432     -54.639081    
Loop time of 0.00156704 on 2 procs for 1 steps with 3 atoms

run 1 pre no post no update no
   Step          Temp          E_pair         E_mol          TotEng         Press     
       826   1203.2626      3.4716855      0.34348987     4.1262432     -54.639081    
       827   1446.8635      3.4838855      0.26798968     4.1259188     -23.85382     
Loop time of 0.0016062 on 2 procs for 1 steps with 3 atoms

run 1 pre no post no update no
   Step          Temp          E_pair         E_mol          TotEng         Press     
       827   1446.8635      3.4838855      0.26798968     4.1259188     -23.85382     
       828   1687.7478      3.4952406      0.19404352     4.1256011      9.4835191    
Loop time of 0.00157773 on 2 procs for 1 steps with 3 atoms

run 1 pre no post no update no
   Step          Temp          E_pair         E_mol          TotEng         Press     
       828   1687.7478      3.4952406      0.19404352     4.1256011      9.4835191    
       829   1906.4814      3.5057869      0.12666266     4.1253137      44.297763    
Loop time of 0.00154132 on 2 procs for 1 steps with 3 atoms

run 1 pre no post no update no
   Step          Temp          E_pair         E_mol          TotEng         Press     
       829   1906.4814      3.5057869      0.12666266     4.1253137      44.297763    
       830   2085.4238      3.5155499      0.070400692    4.1250749      79.531326    
Loop time of 0.00150997 on 2 procs for 1 steps with 3 atoms

run 1 pre yes post no update no
Per MPI rank memory allocation (min/avg/max) = 9.142 | 9.262 | 9.381 Mbytes
   Step          Temp          E_pair         E_mol          TotEng         Press     
       830   2085.4238      3.5155499      0.070400692    4.1250749      79.531326    
       831   2209.9769      3.5245463      0.029033209    4.1249034      114.19506    
Loop time of 0.00156603 on 2 procs for 1 steps with 3 atoms

run 1 pre no post no update no
   Step          Temp          E_pair         E_mol          TotEng         Press     
       831   2209.9769      3.5245463      0.029033209    4.1249034      114.19506    
       832   2269.6217      3.5327757      0.0052916549   4.1248106      147.41182    
Loop time of 0.00152429 on 2 procs for 1 steps with 3 atoms

run 1 pre no post no update no
   Step          Temp          E_pair         E_mol          TotEng         Press     
       832   2269.6217      3.5327757      0.0052916549   4.1248106      147.41182    
       833   2258.6699      3.5402212      0.0006704308   4.1248036      178.45133    
Loop time of 0.00149364 on 2 procs for 1 steps with 3 atoms

run 1 pre no post no update no
   Step          Temp          E_pair         E_mol          TotEng         Press     
       833   2258.6699      3.5402212      0.0006704308   4.1248036      178.45133    
       834   2176.6758      3.5468468      0.015320899    4.1248825      206.75356    
Loop time of 0.00149945 on 2 procs for 1 steps with 3 atoms

run 1 pre no post no update no
   Step          Temp          E_pair         E_mol          TotEng         Press     
       834   2176.6758      3.5468468      0.015320899    4.1248825      206.75356    
       835   2028.4807      3.552599       0.048039842    4.1250423      231.93984    
Loop time of 0.00155162 on 2 procs for 1 steps with 3 atoms

run 1 pre no post no update no
   Step          Temp          E_pair         E_mol          TotEng         Press     
       835   2028.4807      3.552599       0.048039842    4.1250423      231.93984    
       836   1823.885       3.5574078      0.096353276    4.1252724      253.81135    
Loop time of 0.00147096 on 2 procs for 1 steps with 3 atoms

run 1 pre no post no update no
   Step          Temp          E_pair         E_mol          TotEng         Press     
       836   1823.885       3.5574078      0.096353276    4.1252724      253.81135    
       837   1576.9726      3.5611864      0.15668982     4.1255557      272.33542    
Loop time of 0.00150679 on 2 procs for 1 steps with 3 atoms

run 1 pre no post no update no
   Step          Temp          E_pair         E_mol          TotEng         Press     
       837   1576.9726      3.5611864      0.15668982     4.1255557      272.33542    
       838   1305.1323      3.5638392      0.22463157     4.125874       287.62146    
Loop time of 0.00146491 on 2 procs for 1 steps with 3 atoms

run 1 pre no post no update no
   Step          Temp          E_pair         E_mol          TotEng         Press     
       838   1305.1323      3.5638392      0.22463157     4.125874       287.62146    
       839   1027.846       3.5652607      0.29522504     4.1262047      299.88814    
Loop time of 0.00148058 on 2 procs for 1 steps with 3 atoms

run 1 pre no post no update no
   Step          Temp          E_pair         E_mol          TotEng         Press     
       839   1027.846       3.5652607      0.29522504     4.1262047      299.88814    
       840   765.32731      3.5653407      0.3633306      4.126524       309.425      
Loop time of 0.00147832 on 2 procs for 1 steps with 3 atoms

run 1 pre yes post no update no
Per MPI rank memory allocation (min/avg/max) = 9.142 | 9.262 | 9.381 Mbytes
   Step          Temp          E_pair         E_mol          TotEng         Press     
       840   765.32731      3.5653407      0.3633306      4.126524       309.425      
       841   537.1043       3.5639707      0.42398617     4.1268092      316.55143    
Loop time of 0.00149638 on 2 procs for 1 steps with 3 atoms

run 1 pre no post no update no
   Step          Temp          E_pair         E_mol          TotEng         Press     
       841   537.1043       3.5639707      0.42398617     4.1268092      316.55143    
       842   360.64452      3.5610479      0.47275991     4.1270417      321.57606    
Loop time of 0.0014556 on 2 procs for 1 steps with 3 atoms

run 1 pre no post no update no
   Step          Temp          E_pair         E_mol          TotEng         Press     
       842   360.64452      3.5610479      0.47275991     4.1270417      321.57606    
       843   250.11815      3.5564761      0.5060675      4.1272042      324.75984    
Loop time of 0.00146911 on 2 procs for 1 steps with 3 atoms

run 1 pre no post no update no
   Step          Temp          E_pair         E_mol          TotEng         Press     
       843   250.11815      3.5564761      0.5060675      4.1272042      324.75984    
       844   215.38474      3.550171       0.52143162     4.127284       326.28571    
Loop time of 0.00146016 on 2 procs for 1 steps with 3 atoms

run 1 pre no post no update no
   Step          Temp          E_pair         E_mol          TotEng         Press     
       844   215.38474      3.550171       0.52143162     4.127284       326.28571    
       845   261.27514      3.5420659      0.51766544     4.1272762      326.23727    
Loop time of 0.00147214 on 2 procs for 1 steps with 3 atoms

run 1 pre no post no update no
   Step          Temp          E_pair         E_mol          TotEng         Press     
       845   261.27514      3.5420659      0.51766544     4.1272762      326.23727    
       846   387.22021      3.5321088      0.49496675     4.1271799      324.5877     
Loop time of 0.00156454 on 2 procs for 1 steps with 3 atoms

run 1 pre no post no update no
   Step          Temp          E_pair         E_mol          TotEng         Press     
       846   387.22021      3.5321088      0.49496675     4.1271799      324.5877     
       847   587.25469      3.520269       0.45491537     4.1270016      321.20053    
Loop time of 0.00147532 on 2 procs for 1 steps with 3 atoms

run 1 pre no post no update no
   Step          Temp          E_pair         E_mol          TotEng         Press     
       847   587.25469      3.520269       0.45491537     4.1270016      321.20053    
       848   850.39905      3.5065345      0.40037329     4.1267532      315.8417     
Loop time of 0.00147819 on 2 procs for 1 steps with 3 atoms

run 1 pre no post no update no
   Step          Temp          E_pair         E_mol          TotEng         Press     
       848   850.39905      3.5065345      0.40037329     4.1267532      315.8417     
       849   1161.3959      3.490913       0.33529355     4.1264509      308.20252    
Loop time of 0.00146896 on 2 procs for 1 steps with 3 atoms

run 1 pre no post no update no
   Step          Temp          E_pair         E_mol          TotEng         Press     
       849   1161.3959      3.490913       0.33529355     4.1264509      308.20252    
       850   1501.7524      3.4734328      0.26445046     4.1261167      297.9317     
Loop time of 0.00150024 on 2 procs for 1 steps with 3 atoms

run 1 pre yes post no update no
Per MPI rank memory allocation (min/avg/max) = 9.142 | 9.262 | 9.381 Mbytes
   Step          Temp          E_pair         E_mol          TotEng         Press     
       850   1501.7524      3.4734328      0.26445046     4.1261167      297.9317     
       851   1851.0181      3.4541378      0.19310952     4.1257731      284.67395    
Loop time of 0.00147057 on 2 procs for 1 steps with 3 atoms

run 1 pre no post no update no
   Step          Temp          E_pair         E_mol          TotEng         Press     
       851   1851.0181      3.4541378      0.19310952     4.1257731      284.67395    
       852   2188.2101      3.4330875      0.1266598      4.125444       268.1126     
Loop time of 0.00147665 on 2 procs for 1 steps with 3 atoms

run 1 pre no post no update no
   Step          Temp          E_pair         E_mol          TotEng         Press     
       852   2188.2101      3.4330875      0.1266598      4.125444       268.1126     
       853   2493.2851      3.4103533      0.070234672    4.1251528      248.01259    
Loop time of 0.00148736 on 2 procs for 1 steps with 3 atoms

run 1 pre no post no update no
   Step          Temp          E_pair         E_mol          TotEng         Press     
       853   2493.2851      3.4103533      0.070234672    4.1251528      248.01259    
       854   2748.5555      3.3860156      0.028347501    4.1249205      224.2606     
Loop time of 0.00147135 on 2 procs for 1 steps with 3 atoms

run 1 pre no post no update no
   Step          Temp          E_pair         E_mol          TotEng         Press     
       854   2748.5555      3.3860156      0.028347501    4.1249205      224.2606     
       855   2939.9476      3.3601586      0.0045685848   4.1247633      196.89885    
Loop time of 0.00146199 on 2 procs for 1 steps with 3 atoms

run 1 pre no post no update no
   Step          Temp          E_pair         E_mol          TotEng         Press     
       855   2939.9476      3.3601586      0.0045685848   4.1247633      196.89885    
       856   3058.0122      3.3328677      0.0012662905   4.1246922      166.15004    
Loop time of 0.00150705 on 2 procs for 1 steps with 3 atoms

run 1 pre no post no update no
   Step          Temp          E_pair         E_mol          TotEng         Press     
       856   3058.0122      3.3328677      0.0012662905   4.1246922      166.15004    
       857   3098.6139      3.3042283      0.019431229    4.1247141      132.43088    
Loop time of 0.00147333 on 2 procs for 1 steps with 3 atoms

run 1 pre no post no update no
   Step          Temp          E_pair         E_mol          TotEng         Press     
       857   3098.6139      3.3042283      0.019431229    4.1247141      132.43088    
       858   3063.2494      3.274317       0.058596275    4.1248254      96.352367    
Loop time of 0.00150215 on 2 procs for 1 steps with 3 atoms

run 1 pre no post no update no
   Step          Temp          E_pair         E_mol          TotEng         Press     
       858   3063.2494      3.274317       0.058596275    4.1248254      96.352367    
       859   2958.97        3.2432076      0.11685844     4.1250198      58.707163    
Loop time of 0.00146242 on 2 procs for 1 steps with 3 atoms

run 1 pre no post no update no
   Step          Temp          E_pair         E_mol          TotEng         Press     
       859   2958.97        3.2432076      0.11685844     4.1250198      58.707163    
       860   2797.9126      3.2109659      0.19100133     4.1252844      20.443364    
Loop time of 0.00149819 on 2 procs for 1 steps with 3 atoms

run 1 pre yes post no update no
Per MPI rank memory allocation (min/avg/max) = 9.142 | 9.262 | 9.381 Mbytes
   Step          Temp          E_pair         E_mol          TotEng         Press     
       860   2797.9126      3.2109659      0.19100133     4.1252844      20.443364    
       861   2596.4718      3.1776498      0.27670972     4.1256002     -17.373547    
Loop time of 0.00147547 on 2 procs for 1 steps with 3 atoms

run 1 pre no post no update no
   Step          Temp          E_pair         E_mol          TotEng         Press     
       861   2596.4718      3.1776498      0.27670972     4.1256002     -17.373547    
       862   2374.171       3.1433133      0.36886106     4.1259457     -53.608245    
Loop time of 0.00150561 on 2 procs for 1 steps with 3 atoms

run 1 pre no post no update no
   Step          Temp          E_pair         E_mol          TotEng         Press     
       862   2374.171       3.1433133      0.36886106     4.1259457     -53.608245    
       863   2152.312       3.1080072      0.46187336     4.1262969     -87.11018     
Loop time of 0.00146714 on 2 procs for 1 steps with 3 atoms

run 1 pre no post no update no
   Step          Temp          E_pair         E_mol          TotEng         Press     
       863   2152.312       3.1080072      0.46187336     4.1262969     -87.11018     
       864   1952.5006      3.0717838      0.55008459     4.1266294     -116.77145    
Loop time of 0.00149315 on 2 procs for 1 steps with 3 atoms

run 1 pre no post no update no
   Step          Temp          E_pair         E_mol          TotEng         Press     
       864   1952.5006      3.0717838      0.55008459     4.1266294     -116.77145    
       865   1795.1525      3.0347008      0.62813658     4.1269208     -141.58446    
Loop time of 0.00147751 on 2 procs for 1 steps with 3 atoms

run 1 pre no post no update no
   Step          Temp          E_pair         E_mol          TotEng         Press     
       865   1795.1525      3.0347008      0.62813658     4.1269208     -141.58446    
       866   1698.0876      2.9968247      0.69133589     4.1271507     -160.69555    
Loop time of 0.00150286 on 2 procs for 1 steps with 3 atoms

run 1 pre no post no update no
   Step          Temp          E_pair         E_mol          TotEng         Press     
       866   1698.0876      2.9968247      0.69133589     4.1271507     -160.69555    
       867   1675.3142      2.9582354      0.73596582     4.1273039     -173.45104    
Loop time of 0.00151684 on 2 procs for 1 steps with 3 atoms

run 1 pre no post no update no
   Step          Temp          E_pair         E_mol          TotEng         Press     
       867   1675.3142      2.9582354      0.73596582     4.1273039     -173.45104    
       868   1736.0914      2.919029       0.75952712     4.127371      -179.43265    
Loop time of 0.00145338 on 2 procs for 1 steps with 3 atoms

run 1 pre no post no update no
   Step          Temp          E_pair         E_mol          TotEng         Press     
       868   1736.0914      2.919029       0.75952712     4.127371      -179.43265    
       869   1884.3396      2.8793193      0.76089001     4.1273493     -178.47998    
Loop time of 0.00157106 on 2 procs for 1 steps with 3 atoms

run 1 pre no post no update no
   Step          Temp          E_pair         E_mol          TotEng         Press     
       869   1884.3396      2.8793193      0.76089001     4.1273493     -178.47998    
       870   2118.4412      2.839236       0.74034659     4.1272426     -170.69856    
Loop time of 0.00153213 on 2 procs for 1 steps with 3 atoms

run 1 pre yes post no update no
Per MPI rank memory allocation (min/avg/max) = 9.142 | 9.262 | 9.381 Mbytes
   Step          Temp          E_pair         E_mol          TotEng         Press     
       870   2118.4412      2.839236       0.74034659     4.1272426     -170.69856    
       871   2431.4496      2.7989213      0.69956        4.1270604     -156.45285    
Loop time of 0.00143876 on 2 procs for 1 steps with 3 atoms

run 1 pre no post no update no
   Step          Temp          E_pair         E_mol          TotEng         Press     
       871   2431.4496      2.7989213      0.69956        4.1270604     -156.45285    
       872   2811.6909      2.7585255      0.64141404     4.1268187     -136.3447     
Loop time of 0.00149286 on 2 procs for 1 steps with 3 atoms

run 1 pre no post no update no
   Step          Temp          E_pair         E_mol          TotEng         Press     
       872   2811.6909      2.7585255      0.64141404     4.1268187     -136.3447     
       873   3243.7151      2.7181966      0.56977471     4.1265375     -111.17884    
Loop time of 0.0014648 on 2 procs for 1 steps with 3 atoms

run 1 pre no post no update no
   Step          Temp          E_pair         E_mol          TotEng         Press     
       873   3243.7151      2.7181966      0.56977471     4.1265375     -111.17884    
       874   3709.5267      2.6780718      0.48918157     4.1262413     -81.917639    
Loop time of 0.00146576 on 2 procs for 1 steps with 3 atoms

run 1 pre no post no update no
   Step          Temp          E_pair         E_mol          TotEng         Press     
       874   3709.5267      2.6780718      0.48918157     4.1262413     -81.917639    
       875   4190.0019      2.6382606      0.40449245     4.1259535     -49.628537    
Loop time of 0.00146746 on 2 procs for 1 steps with 3 atoms

run 1 pre no post no update no
   Step          Temp          E_pair         E_mol          TotEng         Press     
       875   4190.0019      2.6382606      0.40449245     4.1259535     -49.628537    
       876   4666.3817      2.5988351      0.32050924     4.1256987     -15.427467    
Loop time of 0.00144935 on 2 procs for 1 steps with 3 atoms

run 1 pre no post no update no
   Step          Temp          E_pair         E_mol          TotEng         Press     
       876   4666.3817      2.5988351      0.32050924     4.1256987     -15.427467    
       877   5121.7242      2.5598143      0.24161403     4.125498       19.577452    
Loop time of 0.00149041 on 2 procs for 1 steps with 3 atoms

run 1 pre no post no update no
   Step          Temp          E_pair         E_mol          TotEng         Press     
       877   5121.7242      2.5598143      0.24161403     4.125498       19.577452    
       878   5542.1954      2.5211525      0.17144561     4.1253681      54.33816     
Loop time of 0.00147545 on 2 procs for 1 steps with 3 atoms

run 1 pre no post no update no
   Step          Temp          E_pair         E_mol          TotEng         Press     
       878   5542.1954      2.5211525      0.17144561     4.1253681      54.33816     
       879   5918.0882      2.4827311      0.11264343     4.1253204      87.910998    
Loop time of 0.00146449 on 2 procs for 1 steps with 3 atoms

run 1 pre no post no update no
   Step          Temp          E_pair         E_mol          TotEng         Press     
       879   5918.0882      2.4827311      0.11264343     4.1253204      87.910998    
       880   6244.4762      2.4443505      0.066682452    4.1253567      119.49009    
Loop time of 0.00150024 on 2 procs for 1 steps with 3 atoms

run 1 pre yes post no update no
Per MPI rank memory allocation (min/avg/max) = 9.142 | 9.262 | 9.381 Mbytes
   Step          Temp          E_pair         E_mol          TotEng         Press     
       880   6244.4762      2.4443505      0.066682452    4.1253567      119.49009    
       881   6521.4326      2.4057344      0.033815537    4.1254726      148.42758    
Loop time of 0.00304402 on 2 procs for 1 steps with 3 atoms

run 1 pre no post no update no
   Step          Temp          E_pair         E_mol          TotEng         Press     
       881   6521.4326      2.4057344      0.033815537    4.1254726      148.42758    
       882   6753.7791      2.366534       0.013132017    4.1256549      174.23921    
Loop time of 0.00301618 on 2 procs for 1 steps with 3 atoms

run 1 pre no post no update no
   Step          Temp          E_pair         E_mol          TotEng         Press     
       882   6753.7791      2.366534       0.013132017    4.1256549      174.23921    
       883   6950.3677      2.3263423      0.0027315693   4.1258849      196.59555    
Loop time of 0.00293646 on 2 procs for 1 steps with 3 atoms

run 1 pre no post no update no
   Step          Temp          E_pair         E_mol          TotEng         Press     
       883   6950.3677      2.3263423      0.0027315693   4.1258849      196.59555    
       884   7122.9412      2.2847071      1.685851e-06   4.1261336      215.29965    
Loop time of 0.00299025 on 2 procs for 1 steps with 3 atoms

run 1 pre no post no update no
   Step          Temp          E_pair         E_mol          TotEng         Press     
       884   7122.9412      2.2847071      1.685851e-06   4.1261336      215.29965    
       885   7284.6611      2.2411636      0.0019762125   4.1263726      230.25483    
Loop time of 0.0030587 on 2 procs for 1 steps with 3 atoms

run 1 pre no post no update no
   Step          Temp          E_pair         E_mol          TotEng         Press     
       885   7284.6611      2.2411636      0.0019762125   4.1263726      230.25483    
       886   7448.4324      2.1952568      0.0057421778   4.1265699      241.42512    
Loop time of 0.0030636 on 2 procs for 1 steps with 3 atoms

run 1 pre no post no update no
   Step          Temp          E_pair         E_mol          TotEng         Press     
       886   7448.4324      2.1952568      0.0057421778   4.1265699      241.42512    
       887   7625.186       2.1465789      0.0088539531   4.1266981      248.79438    
Loop time of 0.00309585 on 2 procs for 1 steps with 3 atoms

run 1 pre no post no update no
   Step          Temp          E_pair         E_mol          TotEng         Press     
       887   7625.186       2.1465789      0.0088539531   4.1266981      248.79438    
       888   7822.2996      2.0948013      0.0097091764   4.1267336      252.32848    
Loop time of 0.00330905 on 2 procs for 1 steps with 3 atoms

run 1 pre no post no update no
   Step          Temp          E_pair         E_mol          TotEng         Press     
       888   7822.2996      2.0948013      0.0097091764   4.1267336      252.32848    
       889   8042.3339      2.0397143      0.0078412547   4.126662       251.94642    
Loop time of 0.00303624 on 2 procs for 1 steps with 3 atoms

run 1 pre no post no update no
   Step          Temp          E_pair         E_mol          TotEng         Press     
       889   8042.3339      2.0397143      0.0078412547   4.126662       251.94642    
       890   8282.2398      1.9812625      0.0040895167   4.1264791      247.50421    
Loop time of 0.00300648 on 2 procs for 1 steps with 3 atoms

run 1 pre yes post no update no
Per MPI rank memory allocation (min/avg/max) = 9.142 | 9.262 | 9.381 Mbytes
   Step          Temp          E_pair         E_mol          TotEng         Press     
       890   8282.2398      1.9812625      0.0040895167   4.1264791      247.50421    
       891   8533.1463      1.9195811      0.00062010078  4.1261927      238.79472    
Loop time of 0.0029973 on 2 procs for 1 steps with 3 atoms

run 1 pre no post no update no
   Step          Temp          E_pair         E_mol          TotEng         Press     
       891   8533.1463      1.9195811      0.00062010078  4.1261927      238.79472    
       892   8780.7793      1.8550246      0.00078710158  4.1258213      225.56424    
Loop time of 0.0030767 on 2 procs for 1 steps with 3 atoms

run 1 pre no post no update no
   Step          Temp          E_pair         E_mol          TotEng         Press     
       892   8780.7793      1.8550246      0.00078710158  4.1258213      225.56424    
       893   9006.4941      1.7881902      0.0088419784   4.1253936      207.54449    
Loop time of 0.00297559 on 2 procs for 1 steps with 3 atoms

run 1 pre no post no update no
   Step          Temp          E_pair         E_mol          TotEng         Press     
       893   9006.4941      1.7881902      0.0088419784   4.1253936      207.54449    
       894   9188.8426      1.7199296      0.029516949    4.1249488      184.49691    
Loop time of 0.00332707 on 2 procs for 1 steps with 3 atoms

run 1 pre no post no update no
   Step          Temp          E_pair         E_mol          TotEng         Press     
       894   9188.8426      1.7199296      0.029516949    4.1249488      184.49691    
       895   9305.5564      1.6513411      0.067522598    4.1245388      156.26377    
Loop time of 0.00288668 on 2 procs for 1 steps with 3 atoms

run 1 pre no post no update no
   Step          Temp          E_pair         E_mol          TotEng         Press     
       895   9305.5564      1.6513411      0.067522598    4.1245388      156.26377    
       896   9335.8173      1.5837479      0.12701006     4.1242562      122.82146    
Loop time of 0.00280757 on 2 procs for 1 steps with 3 atoms

run 1 pre no post no update no
   Step          Temp          E_pair         E_mol          TotEng         Press     
       896   9335.8173      1.5837479      0.12701006     4.1242562      122.82146    
       897   9262.7103      1.5186408      0.21105474     4.1242941      84.329588    
Loop time of 0.00281988 on 2 procs for 1 steps with 3 atoms

run 1 pre no post no update no
   Step          Temp          E_pair         E_mol          TotEng         Press     
       897   9262.7103      1.5186408      0.21105474     4.1242941      84.329588    
       898   9075.7327      1.4575964      0.32122508     4.1250826      41.170504    
Loop time of 0.00275028 on 2 procs for 1 steps with 3 atoms

run 1 pre no post no update no
   Step          Temp          E_pair         E_mol          TotEng         Press     
       898   9075.7327      1.4575964      0.32122508     4.1250826      41.170504    
       899   8772.9945      1.4021635      0.45730836     4.127469      -6.0310879    
Loop time of 0.00287482 on 2 procs for 1 steps with 3 atoms

run 1 pre no post no update no
   Step          Temp          E_pair         E_mol          TotEng         Press     
       899   8772.9945      1.4021635      0.45730836     4.127469      -6.0310879    
       900   8362.2396      1.3537246      0.61726766     4.1328008     -56.425057    
Loop time of 0.00276303 on 2 procs for 1 steps with 3 atoms

run 1 pre yes post no update no
Per MPI rank memory allocation (min/avg/max) = 9.142 | 9.262 | 9.381 Mbytes
   Step          Temp          E_pair         E_mol          TotEng         Press     
       900   8362.2396      1.3537246      0.61726766     4.1328008     -56.425057    
       901   7859.5728      1.31335        0.79747067     4.1426797     -109.0039     
Loop time of 0.00280949 on 2 procs for 1 steps with 3 atoms

run 1 pre no post no update no
   Step          Temp          E_pair         E_mol          TotEng         Press     
       901   7859.5728      1.31335        0.79747067     4.1426797     -109.0039     
       902   7285.6864      1.281692       0.99314006     4.1583298     -162.71051    
Loop time of 0.00281896 on 2 procs for 1 steps with 3 atoms

run 1 pre no post no update no
   Step          Temp          E_pair         E_mol          TotEng         Press     
       902   7285.6864      1.281692       0.99314006     4.1583298     -162.71051    
       903   6661.2053      1.2589458      1.1988658      4.1798684     -216.5393     
Loop time of 0.00279699 on 2 procs for 1 steps with 3 atoms

run 1 pre no post no update no
   Step          Temp          E_pair         E_mol          TotEng         Press     
       903   6661.2053      1.2589458      1.1988658      4.1798684     -216.5393     
       904   6003.6615      1.2449238      1.40899        4.2059821     -269.57715    
Loop time of 0.00283177 on 2 procs for 1 steps with 3 atoms

run 1 pre no post no update no
   Step          Temp          E_pair         E_mol          TotEng         Press     
       904   6003.6615      1.2449238      1.40899        4.2059821     -269.57715    
       905   5327.3529      1.2391502      1.6177669      4.234146      -320.97293    
Loop time of 0.00284867 on 2 procs for 1 steps with 3 atoms

run 1 pre no post no update no
   Step          Temp          E_pair         E_mol          TotEng         Press     
       905   5327.3529      1.2391502      1.6177669      4.234146      -320.97293    
       906   4645.2677      1.2410069      1.8193433      4.2612461     -369.86635    
Loop time of 0.00276881 on 2 procs for 1 steps with 3 atoms

run 1 pre no post no update no
   Step          Temp          E_pair         E_mol          TotEng         Press     
       906   4645.2677      1.2410069      1.8193433      4.2612461     -369.86635    
       907   3971.3659      1.2498303      2.0076753      4.2841842     -415.32442    
Loop time of 0.00279382 on 2 procs for 1 steps with 3 atoms

run 1 pre no post no update no
   Step          Temp          E_pair         E_mol          TotEng         Press     
       907   3971.3659      1.2498303      2.0076753      4.2841842     -415.32442    
       908   3322.1035      1.2650051      2.1764844      4.3003206     -456.30802    
Loop time of 0.00284311 on 2 procs for 1 steps with 3 atoms

run 1 pre no post no update no
   Step          Temp          E_pair         E_mol          TotEng         Press     
       908   3322.1035      1.2650051      2.1764844      4.3003206     -456.30802    
       909   2717.0381      1.2860048      2.3192956      4.3077099     -491.66998    
Loop time of 0.002847 on 2 procs for 1 steps with 3 atoms

run 1 pre no post no update no
   Step          Temp          E_pair         E_mol          TotEng         Press     
       909   2717.0381      1.2860048      2.3192956      4.3077099     -491.66998    
       910   2178.8329      1.3124352      2.4295689      4.3052766     -520.17204    
Loop time of 0.0028213 on 2 procs for 1 steps with 3 atoms

run 1 pre yes post no update no
Per MPI rank memory allocation (min/avg/max) = 9.142 | 9.262 | 9.381 Mbytes
   Step          Temp          E_pair         E_mol          TotEng         Press     
       910   2178.8329      1.3124352      2.4295689      4.3052766     -520.17204    
       911   1732.9037      1.3440726      2.5009289      4.2929922     -540.51444    
Loop time of 0.00279053 on 2 procs for 1 steps with 3 atoms

run 1 pre no post no update no
   Step          Temp          E_pair         E_mol          TotEng         Press     
       911   1732.9037      1.3440726      2.5009289      4.2929922     -540.51444    
       912   1406.6179      1.3808608      2.5275142      4.2720143     -551.38302    
Loop time of 0.00295752 on 2 procs for 1 steps with 3 atoms

run 1 pre no post no update no
   Step          Temp          E_pair         E_mol          TotEng         Press     
       912   1406.6179      1.3808608      2.5275142      4.2720143     -551.38302    
       913   1227.619       1.4229236      2.5044746      4.2447626     -551.52436    
Loop time of 0.00323743 on 2 procs for 1 steps with 3 atoms

run 1 pre no post no update no
   Step          Temp          E_pair         E_mol          TotEng         Press     
       913   1227.619       1.4229236      2.5044746      4.2447626     -551.52436    
       914   1220.715       1.4705039      2.4286255      4.214709      -539.86629    
Loop time of 0.00285703 on 2 procs for 1 steps with 3 atoms

run 1 pre no post no update no
   Step          Temp          E_pair         E_mol          TotEng         Press     
       914   1220.715       1.4705039      2.4286255      4.214709      -539.86629    
       915   1403.0264      1.5238889      2.2992162      4.1858158     -515.68662    
Loop time of 0.0028501 on 2 procs for 1 steps with 3 atoms

run 1 pre no post no update no
   Step          Temp          E_pair         E_mol          TotEng         Press     
       915   1403.0264      1.5238889      2.2992162      4.1858158     -515.68662    
       916   1777.8856      1.5832827      2.1186868      4.161589      -478.81428    
Loop time of 0.00292097 on 2 procs for 1 steps with 3 atoms

run 1 pre no post no update no
   Step          Temp          E_pair         E_mol          TotEng         Press     
       916   1777.8856      1.5832827      2.1186868      4.161589      -478.81428    
       917   2329.28        1.6486906      1.8932106      4.1440674     -429.81077    
Loop time of 0.00283061 on 2 procs for 1 steps with 3 atoms

run 1 pre no post no update no
   Step          Temp          E_pair         E_mol          TotEng         Press     
       917   2329.28        1.6486906      1.8932106      4.1440674     -429.81077    
       918   3019.7673      1.7198129      1.6327826      4.1332666     -370.05476    
Loop time of 0.00288945 on 2 procs for 1 steps with 3 atoms

run 1 pre no post no update no
   Step          Temp          E_pair         E_mol          TotEng         Press     
       918   3019.7673      1.7198129      1.6327826      4.1332666     -370.05476    
       919   3794.1638      1.7960097      1.3506847      4.1275627     -301.66263    
Loop time of 0.00289735 on 2 procs for 1 steps with 3 atoms

run 1 pre no post no update no
   Step          Temp          E_pair         E_mol          TotEng         Press     
       919   3794.1638      1.7960097      1.3506847      4.1275627     -301.66263    
       920   4588.0438      1.8763497      1.0623677      4.1248198     -227.25549    
Loop time of 0.00285468 on 2 procs for 1 steps with 3 atoms

run 1 pre yes post no update no
Per MPI rank memory allocation (min/avg/max) = 9.142 | 9.262 | 9.381 Mbytes
   Step          Temp          E_pair         E_mol          TotEng         Press     
       920   4588.0438      1.8763497      1.0623677      4.1248198     -227.25549    
       921   5336.8575      1.9597079      0.78402177     4.1234157     -149.67036    
Loop time of 0.00284771 on 2 procs for 1 steps with 3 atoms

run 1 pre no post no update no
   Step          Temp          E_pair         E_mol          TotEng         Press     
       921   5336.8575      1.9597079      0.78402177     4.1234157     -149.67036    
       922   5982.1635      2.0448563      0.53116988     4.1225368     -71.716837    
Loop time of 0.00284 on 2 procs for 1 steps with 3 atoms

run 1 pre no post no update no
   Step          Temp          E_pair         E_mol          TotEng         Press     
       922   5982.1635      2.0448563      0.53116988     4.1225368     -71.716837    
       923   6474.9746      2.1305405      0.31747419     4.121927       3.9950668    
Loop time of 0.002888 on 2 procs for 1 steps with 3 atoms

run 1 pre no post no update no
   Step          Temp          E_pair         E_mol          TotEng         Press     
       923   6474.9746      2.1305405      0.31747419     4.121927       3.9950668    
       924   6777.9641      2.2155167      0.15379101     4.1215489      75.181249    
Loop time of 0.0029773 on 2 procs for 1 steps with 3 atoms

run 1 pre no post no update no
   Step          Temp          E_pair         E_mol          TotEng         Press     
       924   6777.9641      2.2155167      0.15379101     4.1215489      75.181249    
       925   6867.3943      2.2985883      0.047468331    4.1214174      139.98437    
Loop time of 0.00299192 on 2 procs for 1 steps with 3 atoms

run 1 pre no post no update no
   Step          Temp          E_pair         E_mol          TotEng         Press     
       925   6867.3943      2.2985883      0.047468331    4.1214174      139.98437    
       926   6734.554       2.3786235      0.0018970025   4.1215393      197.04704    
Loop time of 0.0029934 on 2 procs for 1 steps with 3 atoms

run 1 pre no post no update no
   Step          Temp          E_pair         E_mol          TotEng         Press     
       926   6734.554       2.3786235      0.0018970025   4.1215393      197.04704    
       927   6386.3268      2.4545777      0.01633542     4.1219081      245.55164    
Loop time of 0.00304525 on 2 procs for 1 steps with 3 atoms

run 1 pre no post no update no
   Step          Temp          E_pair         E_mol          TotEng         Press     
       927   6386.3268      2.4545777      0.01633542     4.1219081      245.55164    
       928   5844.7265      2.5255021      0.086016884    4.1224993      285.22251    
Loop time of 0.00302631 on 2 procs for 1 steps with 3 atoms

run 1 pre no post no update no
   Step          Temp          E_pair         E_mol          TotEng         Press     
       928   5844.7265      2.5255021      0.086016884    4.1224993      285.22251    
       929   5145.4021      2.5905497      0.20253129     4.1232718      316.29176    
Loop time of 0.00152316 on 2 procs for 1 steps with 3 atoms

run 1 pre no post no update no
   Step          Temp          E_pair         E_mol          TotEng         Press     
       929   5145.4021      2.5905497      0.20253129     4.1232718      316.29176    
       930   4335.21        2.6489804      0.35445419     4.1241744      339.43194    
Loop time of 0.00150883 on 2 procs for 1 steps with 3 atoms

run 1 pre yes post no update no
Per MPI rank memory allocation (min/avg/max) = 9.142 | 9.262 | 9.381 Mbytes
   Step          Temp          E_pair         E_mol          TotEng         Press     
       930   4335.21        2.6489804      0.35445419     4.1241744      339.43194    
       931   3469.0193      2.7001543      0.52817949     4.1251456      355.66073    
Loop time of 0.00146617 on 2 procs for 1 steps with 3 atoms

run 1 pre no post no update no
   Step          Temp          E_pair         E_mol          TotEng         Press     
       931   3469.0193      2.7001543      0.52817949     4.1251456      355.66073    
       932   2605.9656      2.7435265      0.70889847     4.12612        366.22572    
Loop time of 0.00147787 on 2 procs for 1 steps with 3 atoms

run 1 pre no post no update no
   Step          Temp          E_pair         E_mol          TotEng         Press     
       932   2605.9656      2.7435265      0.70889847     4.12612        366.22572    
       933   1805.408       2.778639       0.88165776     4.1270314      372.47732    
Loop time of 0.001497 on 2 procs for 1 steps with 3 atoms

run 1 pre no post no update no
   Step          Temp          E_pair         E_mol          TotEng         Press     
       933   1805.408       2.778639       0.88165776     4.1270314      372.47732    
       934   1122.8647      2.8051087      1.0324241      4.1278161      375.73951    
Loop time of 0.00145354 on 2 procs for 1 steps with 3 atoms

run 1 pre no post no update no
   Step          Temp          E_pair         E_mol          TotEng         Press     
       934   1122.8647      2.8051087      1.0324241      4.1278161      375.73951    
       935   606.20112      2.8226229      1.1490829      4.1284211      377.18798    
Loop time of 0.00146858 on 2 procs for 1 steps with 3 atoms

run 1 pre no post no update no
   Step          Temp          E_pair         E_mol          TotEng         Press     
       935   606.20112      2.8226229      1.1490829      4.1284211      377.18798    
       936   292.33276      2.8309287      1.2223027      4.1288053      377.74383    
Loop time of 0.00146817 on 2 procs for 1 steps with 3 atoms

run 1 pre no post no update no
   Step          Temp          E_pair         E_mol          TotEng         Press     
       936   292.33276      2.8309287      1.2223027      4.1288053      377.74383    
       937   204.66584      2.8298245      1.2462058      4.1289406      377.99108    
Loop time of 0.00142518 on 2 procs for 1 steps with 3 atoms

run 1 pre no post no update no
   Step          Temp          E_pair         E_mol          TotEng         Press     
       937   204.66584      2.8298245      1.2462058      4.1289406      377.99108    
       938   351.45556      2.8191604      1.2187985      4.1288173      378.12399    
Loop time of 0.00150816 on 2 procs for 1 steps with 3 atoms

run 1 pre no post no update no
   Step          Temp          E_pair         E_mol          TotEng         Press     
       938   351.45556      2.8191604      1.2187985      4.1288173      378.12399    
       939   725.19737      2.7988342      1.1421306      4.128443       377.92775    
Loop time of 0.00145934 on 2 procs for 1 steps with 3 atoms

run 1 pre no post no update no
   Step          Temp          E_pair         E_mol          TotEng         Press     
       939   725.19737      2.7988342      1.1421306      4.128443       377.92775    
       940   1303.0988      2.7687943      1.0221707      4.1278424      376.79443    
Loop time of 0.00144252 on 2 procs for 1 steps with 3 atoms

run 1 pre yes post no update no
Per MPI rank memory allocation (min/avg/max) = 9.142 | 9.262 | 9.381 Mbytes
   Step          Temp          E_pair         E_mol          TotEng         Press     
       940   1303.0988      2.7687943      1.0221707      4.1278424      376.79443    
       941   2048.6046      2.7290449      0.86840511     4.1270558      373.77318    
Loop time of 0.00147418 on 2 procs for 1 steps with 3 atoms

run 1 pre no post no update no
   Step          Temp          E_pair         E_mol          TotEng         Press     
       941   2048.6046      2.7290449      0.86840511     4.1270558      373.77318    
       942   2913.873       2.6796552      0.69318618     4.1261367      367.65121    
Loop time of 0.00147553 on 2 procs for 1 steps with 3 atoms

run 1 pre no post no update no
   Step          Temp          E_pair         E_mol          TotEng         Press     
       942   2913.873       2.6796552      0.69318618     4.1261367      367.65121    
       943   3843.0334      2.6207712      0.51087395     4.1251472      357.05993    
Loop time of 0.00143998 on 2 procs for 1 steps with 3 atoms

run 1 pre no post no update no
   Step          Temp          E_pair         E_mol          TotEng         Press     
       943   3843.0334      2.6207712      0.51087395     4.1251472      357.05993    
       944   4775.998       2.5526312      0.33683075     4.1241543      340.59859    
Loop time of 0.00150285 on 2 procs for 1 steps with 3 atoms

run 1 pre no post no update no
   Step          Temp          E_pair         E_mol          TotEng         Press     
       944   4775.998       2.5526312      0.33683075     4.1241543      340.59859    
       945   5652.5594      2.475586       0.18633823     4.1232256      316.96664    
Loop time of 0.00147457 on 2 procs for 1 steps with 3 atoms

run 1 pre no post no update no
   Step          Temp          E_pair         E_mol          TotEng         Press     
       945   5652.5594      2.475586       0.18633823     4.1232256      316.96664    
       946   6416.486       2.3901191      0.073512062    4.122423       285.09502    
Loop time of 0.00142086 on 2 procs for 1 steps with 3 atoms

run 1 pre no post no update no
   Step          Temp          E_pair         E_mol          TotEng         Press     
       946   6416.486       2.3901191      0.073512062    4.122423       285.09502    
       947   7019.3274      2.2968711      0.010289779    4.1217994      244.26698    
Loop time of 0.00368629 on 2 procs for 1 steps with 3 atoms

run 1 pre no post no update no
   Step          Temp          E_pair         E_mol          TotEng         Press     
       947   7019.3274      2.2968711      0.010289779    4.1217994      244.26698    
       948   7423.6658      2.1966661      0.0055614573   4.1213958      194.21953    
Loop time of 0.00295577 on 2 procs for 1 steps with 3 atoms

run 1 pre no post no update no
   Step          Temp          E_pair         E_mol          TotEng         Press     
       948   7423.6658      2.1966661      0.0055614573   4.1213958      194.21953    
       949   7605.5917      2.090535       0.064502685    4.1212374      135.21754    
Loop time of 0.00299117 on 2 procs for 1 steps with 3 atoms

run 1 pre no post no update no
   Step          Temp          E_pair         E_mol          TotEng         Press     
       949   7605.5917      2.090535       0.064502685    4.1212374      135.21754    
       950   7556.2531      1.9797366      0.18815459     4.121336       68.095114    
Loop time of 0.00283482 on 2 procs for 1 steps with 3 atoms

run 1 pre yes post no update no
Per MPI rank memory allocation (min/avg/max) = 9.142 | 9.262 | 9.381 Mbytes
   Step          Temp          E_pair         E_mol          TotEng         Press     
       950   7556.2531      1.9797366      0.18815459     4.121336       68.095114    
       951   7282.5048      1.8657735      0.37327867     4.1217274     -5.7382673    
Loop time of 0.0028189 on 2 procs for 1 steps with 3 atoms

run 1 pre no post no update no
   Step          Temp          E_pair         E_mol          TotEng         Press     
       951   7282.5048      1.8657735      0.37327867     4.1217274     -5.7382673    
       952   6807.3253      1.7503911      0.61249985     4.1227226     -84.318568    
Loop time of 0.00295931 on 2 procs for 1 steps with 3 atoms

run 1 pre no post no update no
   Step          Temp          E_pair         E_mol          TotEng         Press     
       952   6807.3253      1.7503911      0.61249985     4.1227226     -84.318568    
       953   6172.0506      1.6355453      0.89476829     4.1259139     -165.14941    
Loop time of 0.00284004 on 2 procs for 1 steps with 3 atoms

run 1 pre no post no update no
   Step          Temp          E_pair         E_mol          TotEng         Press     
       953   6172.0506      1.6355453      0.89476829     4.1259139     -165.14941    
       954   5441.9855      1.5232811      1.2062931      4.1364379     -245.22998    
Loop time of 0.00274113 on 2 procs for 1 steps with 3 atoms

run 1 pre no post no update no
   Step          Temp          E_pair         E_mol          TotEng         Press     
       954   5441.9855      1.5232811      1.2062931      4.1364379     -245.22998    
       955   4709.3638      1.4154242      1.5323095      4.1651998     -321.24176    
Loop time of 0.0028372 on 2 procs for 1 steps with 3 atoms

run 1 pre no post no update no
   Step          Temp          E_pair         E_mol          TotEng         Press     
       955   4709.3638      1.4154242      1.5323095      4.1651998     -321.24176    
       956   4080.3378      1.3131078      1.8598747      4.2278326     -390.11374    
Loop time of 0.00277905 on 2 procs for 1 steps with 3 atoms

run 1 pre no post no update no
   Step          Temp          E_pair         E_mol          TotEng         Press     
       956   4080.3378      1.3131078      1.8598747      4.2278326     -390.11374    
       957   3644.6758      1.2163824      2.180939       4.3395441     -449.83085    
Loop time of 0.00280974 on 2 procs for 1 steps with 3 atoms

run 1 pre no post no update no
   Step          Temp          E_pair         E_mol          TotEng         Press     
       957   3644.6758      1.2163824      2.180939       4.3395441     -449.83085    
       958   3447.594       1.1242802      2.4940674      4.5096206     -499.92364    
Loop time of 0.00276445 on 2 procs for 1 steps with 3 atoms

run 1 pre no post no update no
   Step          Temp          E_pair         E_mol          TotEng         Press     
       958   3447.594       1.1242802      2.4940674      4.5096206     -499.92364    
       959   3483.3145      1.035523       2.8036067      4.7396372     -541.20626    
Loop time of 0.00273478 on 2 procs for 1 steps with 3 atoms

run 1 pre no post no update no
   Step          Temp          E_pair         E_mol          TotEng         Press     
       959   3483.3145      1.035523       2.8036067      4.7396372     -541.20626    
       960   3715.2877      0.94960703     3.1170108      5.0270951     -574.86261    
Loop time of 0.00273947 on 2 procs for 1 steps with 3 atoms

run 0 pre yes post no
PPPM initialization ...
  using 12-bit tables for long-range coulomb (src/kspace.cpp:342)
  G vector (1/distance) = 0.28934131
  grid = 18 18 18
  stencil order = 5
  estimated absolute RMS force accuracy = 7.7110449e-05
  estimated relative force accuracy = 5.3550243e-06
  using double precision KISS FFT
  3d grid and FFT values/proc = 10000 2916
Generated 0 of 21 mixed pair_coeff terms from geometric mixing rule
Per MPI rank memory allocation (min/avg/max) = 9.142 | 9.262 | 9.381 Mbytes
   Step          Temp          E_pair         E_mol          TotEng         Press     
       960   3715.2877      0.94960703     3.1170108      5.0270951     -574.86261    
Loop time of 1.7535e-06 on 2 procs for 0 steps with 3 atoms

run 0 pre yes post no
PPPM initialization ...
  using 12-bit tables for long-range coulomb (src/kspace.cpp:342)
  G vector (1/distance) = 0.28934131
  grid = 18 18 18
  stencil order = 5
  estimated absolute RMS force accuracy = 7.7110449e-05
  estimated relative force accuracy = 5.3550243e-06
  using double precision KISS FFT
  3d grid and FFT values/proc = 10000 2916
Generated 0 of 21 mixed pair_coeff terms from geometric mixing rule
Per MPI rank memory allocation (min/avg/max) = 9.142 | 9.262 | 9.381 Mbytes
   Step          Temp          E_pair         E_mol          TotEng         Press     
       960   3715.2877      0.94960703     3.1170108      5.0270951     -574.86261    
Loop time of 2.379e-06 on 2 procs for 0 steps with 3 atoms

clear
OMP_NUM_THREADS environment is not set. Defaulting to 1 thread. (src/comm.cpp:98)
  using 1 OpenMP thread(s) per MPI task
units metal
atom_style full
boundary p p p
read_data /tmp/mustard.13e25e9621594b2cbe116fd2c800b3e6
Reading data file ...
  triclinic box = (0 0 0) to (25.319 25.319 25.319) with tilt (0 0 0)
  1 by 1 by 2 MPI processor grid
  reading atoms ...
  3 atoms
  reading velocities ...
  3 velocities
  scanning bonds ...
  1 = max bonds/atom
  reading bonds ...
  1 bonds
Finding 1-2 1-3 1-4 neighbors ...
  special bond factors lj:    0        0        0       
  special bond factors coul:  0        0        0       
     1 = max # of 1-2 neighbors
     0 = max # of 1-3 neighbors
     0 = max # of 1-4 neighbors
     1 = max # of special neighbors
  special bonds CPU = 0.000 seconds
  read_data CPU = 0.001 seconds

change_box all triclinic
Changing box ...
  triclinic box = (0 0 0) to (25.319 25.319 25.319) with tilt (0 0 0)
include ff.lmp
##############################################################################################
#### Atoms' types - mass - charge
##############################################################################################
#@ 7   atom types

variable Ba  equal 1
variable Zr  equal 2
variable  Y  equal 3
variable O1  equal 4
variable O2  equal 5
variable O3  equal 6
variable H1  equal 7

##############################################################################################
#### Atoms' masses
##############################################################################################

mass  ${Ba}   137.327
mass  1   137.327
mass  ${Zr}    91.224
mass  2    91.224
mass  ${Y}     88.910
mass  3     88.910
mass  ${O1}    100000
mass  4    100000
# mass  ${O1}    15.996
mass  ${O2}    100000
mass  5    100000
# mass  ${O2}    15.996
mass  ${O3}    15.996
mass  6    15.996
mass  ${H1}     1.008
mass  7     1.008

##############################################################################################
#### Atoms' charges
##############################################################################################

set type ${Ba}  charge     2.000000
set type 1  charge     2.000000
Setting atom values ...
  0 settings made for charge
set type ${Zr}  charge     4.000000
set type 2  charge     4.000000
Setting atom values ...
  0 settings made for charge
set type ${Y}   charge     3.000000
set type 3   charge     3.000000
Setting atom values ...
  0 settings made for charge
set type ${O1}  charge    -1.308698
set type 4  charge    -1.308698
Setting atom values ...
  1 settings made for charge
set type ${O2}  charge    -2.000000
set type 5  charge    -2.000000
Setting atom values ...
  1 settings made for charge
set type ${O3}  charge    -2.000000
set type 6  charge    -2.000000
Setting atom values ...
  0 settings made for charge
set type ${H1}  charge     0.308698
set type 7  charge     0.308698
Setting atom values ...
  1 settings made for charge

##############################################################################################
#### Covalent bonds parameters
##############################################################################################
#@  1   bond types

bond_style harmonic
#@ O1 - H1
# bond_coeff   1      11.504000      0.985357
bond_coeff   1      23.008000      0.985357

##############################################################################################
# Pair potentials
##############################################################################################

variable rmin  equal  8.
variable rmax  equal 10.

pair_style hybrid/overlay buck/mdf ${rmin} ${rmax} lennard/mdf ${rmin} ${rmax} coul/long ${rmax}
pair_style hybrid/overlay buck/mdf 8 ${rmax} lennard/mdf ${rmin} ${rmax} coul/long ${rmax}
pair_style hybrid/overlay buck/mdf 8 10 lennard/mdf ${rmin} ${rmax} coul/long ${rmax}
pair_style hybrid/overlay buck/mdf 8 10 lennard/mdf 8 ${rmax} coul/long ${rmax}
pair_style hybrid/overlay buck/mdf 8 10 lennard/mdf 8 10 coul/long ${rmax}
pair_style hybrid/overlay buck/mdf 8 10 lennard/mdf 8 10 coul/long 10

##############################################################################################
# Buckingham interaction potentials
pair_coeff  ${Ba}  ${O1}  buck/mdf   688.21662   0.392014   0.000
pair_coeff  1  ${O1}  buck/mdf   688.21662   0.392014   0.000
pair_coeff  1  4  buck/mdf   688.21662   0.392014   0.000
pair_coeff  ${Ba}  ${O2}  buck/mdf   972.19945   0.392014   0.000
pair_coeff  1  ${O2}  buck/mdf   972.19945   0.392014   0.000
pair_coeff  1  5  buck/mdf   972.19945   0.392014   0.000
pair_coeff  ${Ba}  ${O3}  buck/mdf   972.19945   0.392014   0.000
pair_coeff  1  ${O3}  buck/mdf   972.19945   0.392014   0.000
pair_coeff  1  6  buck/mdf   972.19945   0.392014   0.000

pair_coeff  ${Y}   ${O1}  buck/mdf   2972.3808   0.267317   0.000
pair_coeff  3   ${O1}  buck/mdf   2972.3808   0.267317   0.000
pair_coeff  3   4  buck/mdf   2972.3808   0.267317   0.000
pair_coeff  ${Y}   ${O2}  buck/mdf   4121.8373   0.280386   0.000
pair_coeff  3   ${O2}  buck/mdf   4121.8373   0.280386   0.000
pair_coeff  3   5  buck/mdf   4121.8373   0.280386   0.000
pair_coeff  ${Y}   ${O3}  buck/mdf   4121.8373   0.280386   0.000
pair_coeff  3   ${O3}  buck/mdf   4121.8373   0.280386   0.000
pair_coeff  3   6  buck/mdf   4121.8373   0.280386   0.000

pair_coeff  ${Zr}  ${O1}  buck/mdf   2195.8712   0.298760   0.000
pair_coeff  2  ${O1}  buck/mdf   2195.8712   0.298760   0.000
pair_coeff  2  4  buck/mdf   2195.8712   0.298760   0.000
pair_coeff  ${Zr}  ${O2}  buck/mdf   3250.8545   0.298760   0.000
pair_coeff  2  ${O2}  buck/mdf   3250.8545   0.298760   0.000
pair_coeff  2  5  buck/mdf   3250.8545   0.298760   0.000
pair_coeff  ${Zr}  ${O3}  buck/mdf   3250.8545   0.298760   0.000
pair_coeff  2  ${O3}  buck/mdf   3250.8545   0.298760   0.000
pair_coeff  2  6  buck/mdf   3250.8545   0.298760   0.000

pair_coeff  ${O1}  ${O1}  buck/mdf   22764.000   0.149000   0.000
pair_coeff  4  ${O1}  buck/mdf   22764.000   0.149000   0.000
pair_coeff  4  4  buck/mdf   22764.000   0.149000   0.000
pair_coeff  ${O1}  ${O2}  buck/mdf   22764.000   0.149000   0.000
pair_coeff  4  ${O2}  buck/mdf   22764.000   0.149000   0.000
pair_coeff  4  5  buck/mdf   22764.000   0.149000   0.000
pair_coeff  ${O1}  ${O3}  buck/mdf   22764.000   0.149000   0.000
pair_coeff  4  ${O3}  buck/mdf   22764.000   0.149000   0.000
pair_coeff  4  6  buck/mdf   22764.000   0.149000   0.000

pair_coeff  ${O2}  ${O2}  buck/mdf   22764.000   0.149000   0.000
pair_coeff  5  ${O2}  buck/mdf   22764.000   0.149000   0.000
pair_coeff  5  5  buck/mdf   22764.000   0.149000   0.000
pair_coeff  ${O2}  ${O3}  buck/mdf   22764.000   0.149000   0.000
pair_coeff  5  ${O3}  buck/mdf   22764.000   0.149000   0.000
pair_coeff  5  6  buck/mdf   22764.000   0.149000   0.000

pair_coeff  ${O3}  ${O3}  buck/mdf   22764.000   0.149000   0.000
pair_coeff  6  ${O3}  buck/mdf   22764.000   0.149000   0.000
pair_coeff  6  6  buck/mdf   22764.000   0.149000   0.000

##############################################################################################
# 12-6 Lennard-Jones potentials
pair_coeff  ${O1}  ${H1}  lennard/mdf    6.391   0.000
pair_coeff  4  ${H1}  lennard/mdf    6.391   0.000
pair_coeff  4  7  lennard/mdf    6.391   0.000
pair_coeff  ${O2}  ${H1}  lennard/mdf    6.391   0.000
pair_coeff  5  ${H1}  lennard/mdf    6.391   0.000
pair_coeff  5  7  lennard/mdf    6.391   0.000
pair_coeff  ${O3}  ${H1}  lennard/mdf    7.800   0.000
pair_coeff  6  ${H1}  lennard/mdf    7.800   0.000
pair_coeff  6  7  lennard/mdf    7.800   0.000

##############################################################################################
# Coulombic interaction
pair_coeff      *      *  coul/long

#########################################################################################################
# Parameters for reciprocal space electrostatics
#########################################################################################################

kspace_style pppm 1.0e-5
kspace_modify fftbench no
fix md all nve
timestep 0.0002

change_box all x final 0.0 25.319 y final 0.0 25.319 z final 0.0 25.319 xy final 0.0 xz final 0.0 yz final 0.0
Changing box ...
  triclinic box = (0 0 0) to (25.319 25.319 25.319) with tilt (0 0 0)
  triclinic box = (0 0 0) to (25.319 25.319 25.319) with tilt (0 0 0)
  triclinic box = (0 0 0) to (25.319 25.319 25.319) with tilt (0 0 0)
  triclinic box = (0 0 0) to (25.319 25.319 25.319) with tilt (0 0 0)
  triclinic box = (0 0 0) to (25.319 25.319 25.319) with tilt (0 0 0)
  triclinic box = (0 0 0) to (25.319 25.319 25.319) with tilt (0 0 0)
reset_timestep 960
fix ux all store/state 1 xu yu zu
fix ext all external pf/callback 1 1
fix_modify ext energy no
fix_modify ext virial no
compute get_pe all pe

run 0 pre yes post no
PPPM initialization ...
WARNING: System is not charge neutral, net charge = -3 (src/kspace.cpp:327)
  using 12-bit tables for long-range coulomb (src/kspace.cpp:342)
  G vector (1/distance) = 0.28934131
  grid = 18 18 18
  stencil order = 5
  estimated absolute RMS force accuracy = 7.7110449e-05
  estimated relative force accuracy = 5.3550243e-06
  using double precision KISS FFT
  3d grid and FFT values/proc = 10000 2916
Generated 0 of 21 mixed pair_coeff terms from geometric mixing rule
Neighbor list info ...
  update: every = 1 steps, delay = 0 steps, check = yes
  max neighbors/atom: 2000, page size: 100000
  master list distance cutoff = 12
  ghost atom cutoff = 12
  binsize = 6, bins = 5 5 5
  3 neighbor lists, perpetual/occasional/extra = 3 0 0
  (1) pair buck/mdf, perpetual, skip from (3)
      attributes: half, newton on
      pair build: skip
      stencil: none
      bin: none
  (2) pair lennard/mdf, perpetual, skip from (3)
      attributes: half, newton on
      pair build: skip
      stencil: none
      bin: none
  (3) pair coul/long, perpetual
      attributes: half, newton on
      pair build: half/bin/newton/tri
      stencil: half/bin/3d/tri
      bin: standard
Per MPI rank memory allocation (min/avg/max) = 9.142 | 9.262 | 9.381 Mbytes
   Step          Temp          E_pair         E_mol          TotEng         Press     
       960   3562.1175      0.99669577     2.8797459      4.7973213     -547.30793    
Loop time of 2.3145e-06 on 2 procs for 0 steps with 3 atoms

run 0 pre yes post no
PPPM initialization ...
  using 12-bit tables for long-range coulomb (src/kspace.cpp:342)
  G vector (1/distance) = 0.28934131
  grid = 18 18 18
  stencil order = 5
  estimated absolute RMS force accuracy = 7.7110449e-05
  estimated relative force accuracy = 5.3550243e-06
  using double precision KISS FFT
  3d grid and FFT values/proc = 10000 2916
Generated 0 of 21 mixed pair_coeff terms from geometric mixing rule
Per MPI rank memory allocation (min/avg/max) = 9.142 | 9.262 | 9.381 Mbytes
   Step          Temp          E_pair         E_mol          TotEng         Press     
       960   3562.1175      0.99669577     2.8797459      4.7973213     -547.30793    
Loop time of 1.7585e-06 on 2 procs for 0 steps with 3 atoms

run 1 pre yes post no update no
Per MPI rank memory allocation (min/avg/max) = 9.142 | 9.262 | 9.381 Mbytes
   Step          Temp          E_pair         E_mol          TotEng         Press     
       960   3715.2877      0.99669577     2.8797459      4.8369189     -544.70208    
       961   4110.5274      1.0606533      2.4646613      4.5879693     -478.36882    
Loop time of 0.00284891 on 2 procs for 1 steps with 3 atoms

run 1 pre no post no update no
   Step          Temp          E_pair         E_mol          TotEng         Press     
       961   4110.5274      1.0606533      2.4646613      4.5879693     -478.36882    
       962   4657.9071      1.1278183      2.0651141      4.3970959     -407.18774    
Loop time of 0.0029098 on 2 procs for 1 steps with 3 atoms

run 1 pre no post no update no
   Step          Temp          E_pair         E_mol          TotEng         Press     
       962   4657.9071      1.1278183      2.0651141      4.3970959     -407.18774    
       963   5351.0669      1.2000247      1.6802792      4.2636633     -330.8976     
Loop time of 0.0028957 on 2 procs for 1 steps with 3 atoms

run 1 pre no post no update no
   Step          Temp          E_pair         E_mol          TotEng         Press     
       963   5351.0669      1.2000247      1.6802792      4.2636633     -330.8976     
       964   6154.7342      1.2790078      1.3127997      4.1829311     -249.87882    
Loop time of 0.00298768 on 2 procs for 1 steps with 3 atoms

run 1 pre no post no update no
   Step          Temp          E_pair         E_mol          TotEng         Press     
       964   6154.7342      1.2790078      1.3127997      4.1829311     -249.87882    
       965   6989.5325      1.3655766      0.97016916     4.1426817     -165.80663    
Loop time of 0.00288821 on 2 procs for 1 steps with 3 atoms

run 1 pre no post no update no
   Step          Temp          E_pair         E_mol          TotEng         Press     
       965   6989.5325      1.3655766      0.97016916     4.1426817     -165.80663    
       966   7751.1224      1.4591775      0.66382211     4.126822      -81.482413    
Loop time of 0.00285089 on 2 procs for 1 steps with 3 atoms

run 1 pre no post no update no
   Step          Temp          E_pair         E_mol          TotEng         Press     
       966   7751.1224      1.4591775      0.66382211     4.126822      -81.482413    
       967   8346.3901      1.5580972      0.4061928      4.1220012     -0.027833929  
Loop time of 0.00285678 on 2 procs for 1 steps with 3 atoms

run 1 pre no post no update no
   Step          Temp          E_pair         E_mol          TotEng         Press     
       967   8346.3901      1.5580972      0.4061928      4.1220012     -0.027833929  
       968   8716.0291      1.6599846      0.20764538     4.1209003      75.845801    
Loop time of 0.00283777 on 2 procs for 1 steps with 3 atoms

run 1 pre no post no update no
   Step          Temp          E_pair         E_mol          TotEng         Press     
       968   8716.0291      1.6599846      0.20764538     4.1209003      75.845801    
       969   8834.7182      1.7623363      0.074568082    4.1208583      144.12173    
Loop time of 0.00287758 on 2 procs for 1 steps with 3 atoms

run 1 pre no post no update no
   Step          Temp          E_pair         E_mol          TotEng         Press     
       969   8834.7182      1.7623363      0.074568082    4.1208583      144.12173    
       970   8702.7566      1.8627632      0.0086208336   4.1212232      203.48451    
Loop time of 0.00289769 on 2 procs for 1 steps with 3 atoms

run 1 pre yes post no update no
Per MPI rank memory allocation (min/avg/max) = 9.142 | 9.262 | 9.381 Mbytes
   Step          Temp          E_pair         E_mol          TotEng         Press     
       970   8702.7566      1.8627632      0.0086208336   4.1212232      203.48451    
       971   8340.0696      1.9591158      0.00667021     4.1218632      253.27717    
Loop time of 0.00304825 on 2 procs for 1 steps with 3 atoms

run 1 pre no post no update no
   Step          Temp          E_pair         E_mol          TotEng         Press     
       971   8340.0696      1.9591158      0.00667021     4.1218632      253.27717    
       972   7782.921       2.0495466      0.061137244    4.1227269      293.45649    
Loop time of 0.00289669 on 2 procs for 1 steps with 3 atoms

run 1 pre no post no update no
   Step          Temp          E_pair         E_mol          TotEng         Press     
       972   7782.921       2.0495466      0.061137244    4.1227269      293.45649    
       973   7080.9677      2.1325145      0.16066482     4.1237531      324.52262    
Loop time of 0.00285377 on 2 procs for 1 steps with 3 atoms

run 1 pre no post no update no
   Step          Temp          E_pair         E_mol          TotEng         Press     
       973   7080.9677      2.1325145      0.16066482     4.1237531      324.52262    
       974   6293.651       2.2067796      0.29105509     4.1248711      347.41519    
Loop time of 0.0029391 on 2 procs for 1 steps with 3 atoms

run 1 pre no post no update no
   Step          Temp          E_pair         E_mol          TotEng         Press     
       974   6293.651       2.2067796      0.29105509     4.1248711      347.41519    
       975   5485.8603      2.2713727      0.43641874     4.1259977      363.37976    
Loop time of 0.00296342 on 2 procs for 1 steps with 3 atoms

run 1 pre no post no update no
   Step          Temp          E_pair         E_mol          TotEng         Press     
       975   5485.8603      2.2713727      0.43641874     4.1259977      363.37976    
       976   4723.0989      2.325573       0.58046102     4.1270509      373.81619    
Loop time of 0.00290509 on 2 procs for 1 steps with 3 atoms

run 1 pre no post no update no
   Step          Temp          E_pair         E_mol          TotEng         Press     
       976   4723.0989      2.325573       0.58046102     4.1270509      373.81619    
       977   4066.4815      2.3688668      0.70781274     4.1279476      380.11963    
Loop time of 0.00287872 on 2 procs for 1 steps with 3 atoms

run 1 pre no post no update no
   Step          Temp          E_pair         E_mol          TotEng         Press     
       977   4066.4815      2.3688668      0.70781274     4.1279476      380.11963    
       978   3567.9479      2.4009268      0.80530244     4.1286161      383.52876    
Loop time of 0.00292533 on 2 procs for 1 steps with 3 atoms

run 1 pre no post no update no
   Step          Temp          E_pair         E_mol          TotEng         Press     
       978   3567.9479      2.4009268      0.80530244     4.1286161      383.52876    
       979   3266.108       2.4215874      0.86306029     4.1290029      384.99378    
Loop time of 0.00288182 on 2 procs for 1 steps with 3 atoms

run 1 pre no post no update no
   Step          Temp          E_pair         E_mol          TotEng         Press     
       979   3266.108       2.4215874      0.86306029     4.1290029      384.99378    
       980   3183.1071      2.4308281      0.87535055     4.1290765      385.07674    
Loop time of 0.00288594 on 2 procs for 1 steps with 3 atoms

run 1 pre yes post no update no
Per MPI rank memory allocation (min/avg/max) = 9.142 | 9.262 | 9.381 Mbytes
   Step          Temp          E_pair         E_mol          TotEng         Press     
       980   3183.1071      2.4308281      0.87535055     4.1290765      385.07674    
       981   3322.8323      2.4287641      0.84104915     4.1288329      383.89425    
Loop time of 0.00291878 on 2 procs for 1 steps with 3 atoms

run 1 pre no post no update no
   Step          Temp          E_pair         E_mol          TotEng         Press     
       981   3322.8323      2.4287641      0.84104915     4.1288329      383.89425    
       982   3670.6465      2.4156402      0.7637171      4.1282939      381.10786    
Loop time of 0.00287759 on 2 procs for 1 steps with 3 atoms

run 1 pre no post no update no
   Step          Temp          E_pair         E_mol          TotEng         Press     
       982   3670.6465      2.4156402      0.7637171      4.1282939      381.10786    
       983   4194.6795      2.3918352      0.65126318     4.1275081      375.96354    
Loop time of 0.00309649 on 2 procs for 1 steps with 3 atoms

run 1 pre no post no update no
   Step          Temp          E_pair         E_mol          TotEng         Press     
       983   4194.6795      2.3918352      0.65126318     4.1275081      375.96354    
       984   4848.5328      2.3578626      0.51523373     4.1265404      367.37488    
Loop time of 0.00279951 on 2 procs for 1 steps with 3 atoms

run 1 pre no post no update no
   Step          Temp          E_pair         E_mol          TotEng         Press     
       984   4848.5328      2.3578626      0.51523373     4.1265404      367.37488    
       985   5575.12        2.3143834      0.36980416     4.1254692      354.0423     
Loop time of 0.00311524 on 2 procs for 1 steps with 3 atoms

run 1 pre no post no update no
   Step          Temp          E_pair         E_mol          TotEng         Press     
       985   5575.12        2.3143834      0.36980416     4.1254692      354.0423     
       986   6311.2715      2.2622187      0.23057035     4.1243807      334.59578    
Loop time of 0.00267723 on 2 procs for 1 steps with 3 atoms

run 1 pre no post no update no
   Step          Temp          E_pair         E_mol          TotEng         Press     
       986   6311.2715      2.2622187      0.23057035     4.1243807      334.59578    
       987   6992.6981      2.2023539      0.11324791     4.1233561      307.74801    
Loop time of 0.00282307 on 2 procs for 1 steps with 3 atoms

run 1 pre no post no update no
   Step          Temp          E_pair         E_mol          TotEng         Press     
       987   6992.6981      2.2023539      0.11324791     4.1233561      307.74801    
       988   7558.9202      2.1359535      0.032384735    4.1224725      272.44547    
Loop time of 0.00280306 on 2 procs for 1 steps with 3 atoms

run 1 pre no post no update no
   Step          Temp          E_pair         E_mol          TotEng         Press     
       988   7558.9202      2.1359535      0.032384735    4.1224725      272.44547    
       989   7957.8068      2.0643547      0.00018208673  4.1217913      228.00424    
Loop time of 0.00285666 on 2 procs for 1 steps with 3 atoms

run 1 pre no post no update no
   Step          Temp          E_pair         E_mol          TotEng         Press     
       989   7957.8068      2.0643547      0.00018208673  4.1217913      228.00424    
       990   8149.4303      1.9890643      0.025504674    4.121362       174.2211     
Loop time of 0.00282925 on 2 procs for 1 steps with 3 atoms

run 1 pre yes post no update no
Per MPI rank memory allocation (min/avg/max) = 9.142 | 9.262 | 9.381 Mbytes
   Step          Temp          E_pair         E_mol          TotEng         Press     
       990   8149.4303      1.9890643      0.025504674    4.121362       174.2211     
       991   8109.0126      1.9117298      0.1131431      4.1212172      111.45061    
Loop time of 0.00283846 on 2 procs for 1 steps with 3 atoms

run 1 pre no post no update no
   Step          Temp          E_pair         E_mol          TotEng         Press     
       991   8109.0126      1.9117298      0.1131431      4.1212172      111.45061    
       992   7828.8493      1.8341008      0.26337409     4.1213913      40.643562    
Loop time of 0.00280263 on 2 procs for 1 steps with 3 atoms

run 1 pre no post no update no
   Step          Temp          E_pair         E_mol          TotEng         Press     
       992   7828.8493      1.8341008      0.26337409     4.1213913      40.643562    
       993   7319.3224      1.7579722      0.47184706     4.1220126     -36.653705    
Loop time of 0.00281174 on 2 procs for 1 steps with 3 atoms

run 1 pre no post no update no
   Step          Temp          E_pair         E_mol          TotEng         Press     
       993   7319.3224      1.7579722      0.47184706     4.1220126     -36.653705    
       994   6609.3935      1.685103       0.72981961     4.1235849     -118.33553    
Loop time of 0.00279543 on 2 procs for 1 steps with 3 atoms

run 1 pre no post no update no
   Step          Temp          E_pair         E_mol          TotEng         Press     
       994   6609.3935      1.685103       0.72981961     4.1235849     -118.33553    
       995   5746.5821      1.6171121      1.0247851      4.1275053     -201.81535    
Loop time of 0.00283705 on 2 procs for 1 steps with 3 atoms

run 1 pre no post no update no
   Step          Temp          E_pair         E_mol          TotEng         Press     
       995   5746.5821      1.6171121      1.0247851      4.1275053     -201.81535    
       996   4794.5858      1.5553433      1.3415655      4.1364065     -284.18686    
Loop time of 0.00289552 on 2 procs for 1 steps with 3 atoms

run 1 pre no post no update no
   Step          Temp          E_pair         E_mol          TotEng         Press     
       996   4794.5858      1.5553433      1.3415655      4.1364065     -284.18686    
       997   3825.5474      1.5006935      1.6638651      4.1535402     -362.51323    
Loop time of 0.00289808 on 2 procs for 1 steps with 3 atoms

run 1 pre no post no update no
   Step          Temp          E_pair         E_mol          TotEng         Press     
       997   3825.5474      1.5006935      1.6638651      4.1535402     -362.51323    
       998   2907.4997      1.4535015      1.9760154      4.1811645     -434.19276    
Loop time of 0.00301241 on 2 procs for 1 steps with 3 atoms

run 1 pre no post no update no
   Step          Temp          E_pair         E_mol          TotEng         Press     
       998   2907.4997      1.4535015      1.9760154      4.1811645     -434.19276    
       999   2093.0953      1.4135375      2.2644198      4.2190649     -497.24207    
Loop time of 0.00284538 on 2 procs for 1 steps with 3 atoms

run 1 pre no post no update no
   Step          Temp          E_pair         E_mol          TotEng         Press     
       999   2093.0953      1.4135375      2.2644198      4.2190649     -497.24207    
      1000   1415.42        1.3801242      2.5183419      4.2643809     -550.37625    
Loop time of 0.00286653 on 2 procs for 1 steps with 3 atoms

Total wall time: 0:00:03
