LAMMPS (3 Aug 2023 - Development - patch_2Aug2023-673-gf0801338f3-modified)
OMP_NUM_THREADS environment is not set. Defaulting to 1 thread. (src/comm.cpp:98)
  using 1 OpenMP thread(s) per MPI task
units metal
atom_style full
boundary p p p
read_data bazryo3-1.0.lmp
Reading data file ...
  orthogonal box = (0 0 0) to (25.319 25.319 25.319)
  1 by 1 by 1 MPI processor grid
  reading atoms ...
  3 atoms
  scanning bonds ...
  1 = max bonds/atom
  reading bonds ...
  1 bonds
Finding 1-2 1-3 1-4 neighbors ...
  special bond factors lj:    0        0        0       
  special bond factors coul:  0        0        0       
     1 = max # of 1-2 neighbors
     0 = max # of 1-3 neighbors
     0 = max # of 1-4 neighbors
     1 = max # of special neighbors
  special bonds CPU = 0.000 seconds
  read_data CPU = 0.003 seconds
change_box all triclinic
Changing box ...
  triclinic box = (0 0 0) to (25.319 25.319 25.319) with tilt (0 0 0)
include ff.lmp
##############################################################################################
#### Atoms' types - mass - charge
##############################################################################################
#@ 7   atom types

variable Ba  equal 1
variable Zr  equal 2
variable  Y  equal 3
variable O1  equal 4
variable O2  equal 5
variable O3  equal 6
variable H1  equal 7

##############################################################################################
#### Atoms' masses
##############################################################################################

mass  ${Ba}   137.327
mass  1   137.327
mass  ${Zr}    91.224
mass  2    91.224
mass  ${Y}     88.910
mass  3     88.910
mass  ${O1}    100000
mass  4    100000
# mass  ${O1}    15.996
mass  ${O2}    100000
mass  5    100000
# mass  ${O2}    15.996
mass  ${O3}    15.996
mass  6    15.996
mass  ${H1}     1.008
mass  7     1.008

##############################################################################################
#### Atoms' charges
##############################################################################################

set type ${Ba}  charge     2.000000
set type 1  charge     2.000000
Setting atom values ...
  0 settings made for charge
set type ${Zr}  charge     4.000000
set type 2  charge     4.000000
Setting atom values ...
  0 settings made for charge
set type ${Y}   charge     3.000000
set type 3   charge     3.000000
Setting atom values ...
  0 settings made for charge
set type ${O1}  charge    -1.308698
set type 4  charge    -1.308698
Setting atom values ...
  1 settings made for charge
set type ${O2}  charge    -2.000000
set type 5  charge    -2.000000
Setting atom values ...
  1 settings made for charge
set type ${O3}  charge    -2.000000
set type 6  charge    -2.000000
Setting atom values ...
  0 settings made for charge
set type ${H1}  charge     0.308698
set type 7  charge     0.308698
Setting atom values ...
  1 settings made for charge

##############################################################################################
#### Covalent bonds parameters
##############################################################################################
#@  1   bond types

bond_style harmonic
#@ O1 - H1
# bond_coeff   1      11.504000      0.985357
bond_coeff   1      23.008000      0.985357

##############################################################################################
# Pair potentials
##############################################################################################

variable rmin  equal  8.
variable rmax  equal 10.

pair_style hybrid/overlay buck/mdf ${rmin} ${rmax} lennard/mdf ${rmin} ${rmax} coul/long ${rmax}
pair_style hybrid/overlay buck/mdf 8 ${rmax} lennard/mdf ${rmin} ${rmax} coul/long ${rmax}
pair_style hybrid/overlay buck/mdf 8 10 lennard/mdf ${rmin} ${rmax} coul/long ${rmax}
pair_style hybrid/overlay buck/mdf 8 10 lennard/mdf 8 ${rmax} coul/long ${rmax}
pair_style hybrid/overlay buck/mdf 8 10 lennard/mdf 8 10 coul/long ${rmax}
pair_style hybrid/overlay buck/mdf 8 10 lennard/mdf 8 10 coul/long 10

##############################################################################################
# Buckingham interaction potentials
pair_coeff  ${Ba}  ${O1}  buck/mdf   688.21662   0.392014   0.000
pair_coeff  1  ${O1}  buck/mdf   688.21662   0.392014   0.000
pair_coeff  1  4  buck/mdf   688.21662   0.392014   0.000
pair_coeff  ${Ba}  ${O2}  buck/mdf   972.19945   0.392014   0.000
pair_coeff  1  ${O2}  buck/mdf   972.19945   0.392014   0.000
pair_coeff  1  5  buck/mdf   972.19945   0.392014   0.000
pair_coeff  ${Ba}  ${O3}  buck/mdf   972.19945   0.392014   0.000
pair_coeff  1  ${O3}  buck/mdf   972.19945   0.392014   0.000
pair_coeff  1  6  buck/mdf   972.19945   0.392014   0.000

pair_coeff  ${Y}   ${O1}  buck/mdf   2972.3808   0.267317   0.000
pair_coeff  3   ${O1}  buck/mdf   2972.3808   0.267317   0.000
pair_coeff  3   4  buck/mdf   2972.3808   0.267317   0.000
pair_coeff  ${Y}   ${O2}  buck/mdf   4121.8373   0.280386   0.000
pair_coeff  3   ${O2}  buck/mdf   4121.8373   0.280386   0.000
pair_coeff  3   5  buck/mdf   4121.8373   0.280386   0.000
pair_coeff  ${Y}   ${O3}  buck/mdf   4121.8373   0.280386   0.000
pair_coeff  3   ${O3}  buck/mdf   4121.8373   0.280386   0.000
pair_coeff  3   6  buck/mdf   4121.8373   0.280386   0.000

pair_coeff  ${Zr}  ${O1}  buck/mdf   2195.8712   0.298760   0.000
pair_coeff  2  ${O1}  buck/mdf   2195.8712   0.298760   0.000
pair_coeff  2  4  buck/mdf   2195.8712   0.298760   0.000
pair_coeff  ${Zr}  ${O2}  buck/mdf   3250.8545   0.298760   0.000
pair_coeff  2  ${O2}  buck/mdf   3250.8545   0.298760   0.000
pair_coeff  2  5  buck/mdf   3250.8545   0.298760   0.000
pair_coeff  ${Zr}  ${O3}  buck/mdf   3250.8545   0.298760   0.000
pair_coeff  2  ${O3}  buck/mdf   3250.8545   0.298760   0.000
pair_coeff  2  6  buck/mdf   3250.8545   0.298760   0.000

pair_coeff  ${O1}  ${O1}  buck/mdf   22764.000   0.149000   0.000
pair_coeff  4  ${O1}  buck/mdf   22764.000   0.149000   0.000
pair_coeff  4  4  buck/mdf   22764.000   0.149000   0.000
pair_coeff  ${O1}  ${O2}  buck/mdf   22764.000   0.149000   0.000
pair_coeff  4  ${O2}  buck/mdf   22764.000   0.149000   0.000
pair_coeff  4  5  buck/mdf   22764.000   0.149000   0.000
pair_coeff  ${O1}  ${O3}  buck/mdf   22764.000   0.149000   0.000
pair_coeff  4  ${O3}  buck/mdf   22764.000   0.149000   0.000
pair_coeff  4  6  buck/mdf   22764.000   0.149000   0.000

pair_coeff  ${O2}  ${O2}  buck/mdf   22764.000   0.149000   0.000
pair_coeff  5  ${O2}  buck/mdf   22764.000   0.149000   0.000
pair_coeff  5  5  buck/mdf   22764.000   0.149000   0.000
pair_coeff  ${O2}  ${O3}  buck/mdf   22764.000   0.149000   0.000
pair_coeff  5  ${O3}  buck/mdf   22764.000   0.149000   0.000
pair_coeff  5  6  buck/mdf   22764.000   0.149000   0.000

pair_coeff  ${O3}  ${O3}  buck/mdf   22764.000   0.149000   0.000
pair_coeff  6  ${O3}  buck/mdf   22764.000   0.149000   0.000
pair_coeff  6  6  buck/mdf   22764.000   0.149000   0.000

##############################################################################################
# 12-6 Lennard-Jones potentials
pair_coeff  ${O1}  ${H1}  lennard/mdf    6.391   0.000
pair_coeff  4  ${H1}  lennard/mdf    6.391   0.000
pair_coeff  4  7  lennard/mdf    6.391   0.000
pair_coeff  ${O2}  ${H1}  lennard/mdf    6.391   0.000
pair_coeff  5  ${H1}  lennard/mdf    6.391   0.000
pair_coeff  5  7  lennard/mdf    6.391   0.000
pair_coeff  ${O3}  ${H1}  lennard/mdf    7.800   0.000
pair_coeff  6  ${H1}  lennard/mdf    7.800   0.000
pair_coeff  6  7  lennard/mdf    7.800   0.000

##############################################################################################
# Coulombic interaction
pair_coeff      *      *  coul/long

#########################################################################################################
# Parameters for reciprocal space electrostatics
#########################################################################################################

kspace_style pppm 1.0e-5
kspace_modify fftbench no

fix md all nve
timestep 0.0002

run 0 post no
PPPM initialization ...
WARNING: System is not charge neutral, net charge = -3 (src/kspace.cpp:327)
  using 12-bit tables for long-range coulomb (src/kspace.cpp:342)
  G vector (1/distance) = 0.28934131
  grid = 18 18 18
  stencil order = 5
  estimated absolute RMS force accuracy = 7.7110449e-05
  estimated relative force accuracy = 5.3550243e-06
  using double precision KISS FFT
  3d grid and FFT values/proc = 15625 5832
Generated 0 of 21 mixed pair_coeff terms from geometric mixing rule
Neighbor list info ...
  update: every = 1 steps, delay = 0 steps, check = yes
  max neighbors/atom: 2000, page size: 100000
  master list distance cutoff = 12
  ghost atom cutoff = 12
  binsize = 6, bins = 5 5 5
  3 neighbor lists, perpetual/occasional/extra = 3 0 0
  (1) pair buck/mdf, perpetual, skip from (3)
      attributes: half, newton on
      pair build: skip
      stencil: none
      bin: none
  (2) pair lennard/mdf, perpetual, skip from (3)
      attributes: half, newton on
      pair build: skip
      stencil: none
      bin: none
  (3) pair coul/long, perpetual
      attributes: half, newton on
      pair build: half/bin/newton/tri
      stencil: half/bin/3d/tri
      bin: standard
Per MPI rank memory allocation (min/avg/max) = 9.023 | 9.023 | 9.023 Mbytes
   Step          Temp          E_pair         E_mol          TotEng         Press     
         0   0              1.3404142      3.129277       4.4696913     -665.6687     
Loop time of 1.182e-06 on 1 procs for 0 steps with 3 atoms

fix ux all store/state 1 xu yu zu
fix ext all external pf/callback 1 1
fix_modify ext energy no
fix_modify ext virial no
compute get_pe all pe

run 0 post no
PPPM initialization ...
  using 12-bit tables for long-range coulomb (src/kspace.cpp:342)
  G vector (1/distance) = 0.28934131
  grid = 18 18 18
  stencil order = 5
  estimated absolute RMS force accuracy = 7.7110449e-05
  estimated relative force accuracy = 5.3550243e-06
  using double precision KISS FFT
  3d grid and FFT values/proc = 15625 5832
Generated 0 of 21 mixed pair_coeff terms from geometric mixing rule
Per MPI rank memory allocation (min/avg/max) = 9.773 | 9.773 | 9.773 Mbytes
   Step          Temp          E_pair         E_mol          TotEng         Press     
         0   0              1.3404142      3.129277       4.4696913     -665.6687     
Loop time of 1.263e-06 on 1 procs for 0 steps with 3 atoms

run 0 pre yes post no
PPPM initialization ...
  using 12-bit tables for long-range coulomb (src/kspace.cpp:342)
  G vector (1/distance) = 0.28934131
  grid = 18 18 18
  stencil order = 5
  estimated absolute RMS force accuracy = 7.7110449e-05
  estimated relative force accuracy = 5.3550243e-06
  using double precision KISS FFT
  3d grid and FFT values/proc = 15625 5832
Generated 0 of 21 mixed pair_coeff terms from geometric mixing rule
Per MPI rank memory allocation (min/avg/max) = 9.773 | 9.773 | 9.773 Mbytes
   Step          Temp          E_pair         E_mol          TotEng         Press     
         0   0              1.3404142      3.129277       4.4696913     -665.6687     
Loop time of 1.553e-06 on 1 procs for 0 steps with 3 atoms

run 1 pre yes post no
PPPM initialization ...
  using 12-bit tables for long-range coulomb (src/kspace.cpp:342)
  G vector (1/distance) = 0.28934131
  grid = 18 18 18
  stencil order = 5
  estimated absolute RMS force accuracy = 7.7110449e-05
  estimated relative force accuracy = 5.3550243e-06
  using double precision KISS FFT
  3d grid and FFT values/proc = 15625 5832
Generated 0 of 21 mixed pair_coeff terms from geometric mixing rule
Per MPI rank memory allocation (min/avg/max) = 9.773 | 9.773 | 9.773 Mbytes
   Step          Temp          E_pair         E_mol          TotEng         Press     
         0   0              1.3404142      3.129277       4.4696913     -665.6687     
         1   66.359668      1.3411017      3.1050738      4.4633309     -660.84152    
Loop time of 0.00295852 on 1 procs for 1 steps with 3 atoms

run 1 pre yes post no
PPPM initialization ...
  using 12-bit tables for long-range coulomb (src/kspace.cpp:342)
  G vector (1/distance) = 0.28934131
  grid = 18 18 18
  stencil order = 5
  estimated absolute RMS force accuracy = 7.7110449e-05
  estimated relative force accuracy = 5.3550243e-06
  using double precision KISS FFT
  3d grid and FFT values/proc = 15625 5832
Generated 0 of 21 mixed pair_coeff terms from geometric mixing rule
Per MPI rank memory allocation (min/avg/max) = 9.773 | 9.773 | 9.773 Mbytes
   Step          Temp          E_pair         E_mol          TotEng         Press     
         1   66.359668      1.3411017      3.1050738      4.4633309     -660.84152    
         2   264.55115      1.343305       3.032936       4.4446329     -646.40266    
Loop time of 0.00293157 on 1 procs for 1 steps with 3 atoms

run 1 pre yes post no
PPPM initialization ...
  using 12-bit tables for long-range coulomb (src/kspace.cpp:342)
  G vector (1/distance) = 0.28934131
  grid = 18 18 18
  stencil order = 5
  estimated absolute RMS force accuracy = 7.7110449e-05
  estimated relative force accuracy = 5.3550243e-06
  using double precision KISS FFT
  3d grid and FFT values/proc = 15625 5832
Generated 0 of 21 mixed pair_coeff terms from geometric mixing rule
Per MPI rank memory allocation (min/avg/max) = 9.773 | 9.773 | 9.773 Mbytes
   Step          Temp          E_pair         E_mol          TotEng         Press     
         2   264.55115      1.343305       3.032936       4.4446329     -646.40266    
         3   591.87294      1.3474278      2.9143099      4.4147489     -622.48422    
Loop time of 0.00314612 on 1 procs for 1 steps with 3 atoms

run 1 pre yes post no
PPPM initialization ...
  using 12-bit tables for long-range coulomb (src/kspace.cpp:342)
  G vector (1/distance) = 0.28934131
  grid = 18 18 18
  stencil order = 5
  estimated absolute RMS force accuracy = 7.7110449e-05
  estimated relative force accuracy = 5.3550243e-06
  using double precision KISS FFT
  3d grid and FFT values/proc = 15625 5832
Generated 0 of 21 mixed pair_coeff terms from geometric mixing rule
Per MPI rank memory allocation (min/avg/max) = 9.773 | 9.773 | 9.773 Mbytes
   Step          Temp          E_pair         E_mol          TotEng         Press     
         3   591.87294      1.3474278      2.9143099      4.4147489     -622.48422    
         4   1043.7064      1.354131       2.751702       4.3756524     -589.31713    
Loop time of 0.00347639 on 1 procs for 1 steps with 3 atoms

run 1 pre yes post no
PPPM initialization ...
  using 12-bit tables for long-range coulomb (src/kspace.cpp:342)
  G vector (1/distance) = 0.28934131
  grid = 18 18 18
  stencil order = 5
  estimated absolute RMS force accuracy = 7.7110449e-05
  estimated relative force accuracy = 5.3550243e-06
  using double precision KISS FFT
  3d grid and FFT values/proc = 15625 5832
Generated 0 of 21 mixed pair_coeff terms from geometric mixing rule
Per MPI rank memory allocation (min/avg/max) = 9.773 | 9.773 | 9.773 Mbytes
   Step          Temp          E_pair         E_mol          TotEng         Press     
         4   1043.7064      1.354131       2.751702       4.3756524     -589.31713    
         5   1613.3523      1.3642805      2.5487999      4.3301647     -547.24574    
Loop time of 0.00376365 on 1 procs for 1 steps with 3 atoms

run 1 pre yes post no
PPPM initialization ...
  using 12-bit tables for long-range coulomb (src/kspace.cpp:342)
  G vector (1/distance) = 0.28934131
  grid = 18 18 18
  stencil order = 5
  estimated absolute RMS force accuracy = 7.7110449e-05
  estimated relative force accuracy = 5.3550243e-06
  using double precision KISS FFT
  3d grid and FFT values/proc = 15625 5832
Generated 0 of 21 mixed pair_coeff terms from geometric mixing rule
Per MPI rank memory allocation (min/avg/max) = 9.773 | 9.773 | 9.773 Mbytes
   Step          Temp          E_pair         E_mol          TotEng         Press     
         5   1613.3523      1.3642805      2.5487999      4.3301647     -547.24574    
         6   2291.6619      1.3789004      2.3106104      4.2819519     -496.74684    
Loop time of 0.00406224 on 1 procs for 1 steps with 3 atoms

run 1 pre yes post no
PPPM initialization ...
  using 12-bit tables for long-range coulomb (src/kspace.cpp:342)
  G vector (1/distance) = 0.28934131
  grid = 18 18 18
  stencil order = 5
  estimated absolute RMS force accuracy = 7.7110449e-05
  estimated relative force accuracy = 5.3550243e-06
  using double precision KISS FFT
  3d grid and FFT values/proc = 15625 5832
Generated 0 of 21 mixed pair_coeff terms from geometric mixing rule
Per MPI rank memory allocation (min/avg/max) = 9.773 | 9.773 | 9.773 Mbytes
   Step          Temp          E_pair         E_mol          TotEng         Press     
         6   2291.6619      1.3789004      2.3106104      4.2819519     -496.74684    
         7   3065.9779      1.3990955      2.0436082      4.2353212     -438.46452    
Loop time of 0.00368309 on 1 procs for 1 steps with 3 atoms

run 1 pre yes post no
PPPM initialization ...
  using 12-bit tables for long-range coulomb (src/kspace.cpp:342)
  G vector (1/distance) = 0.28934131
  grid = 18 18 18
  stencil order = 5
  estimated absolute RMS force accuracy = 7.7110449e-05
  estimated relative force accuracy = 5.3550243e-06
  using double precision KISS FFT
  3d grid and FFT values/proc = 15625 5832
Generated 0 of 21 mixed pair_coeff terms from geometric mixing rule
Per MPI rank memory allocation (min/avg/max) = 9.773 | 9.773 | 9.773 Mbytes
   Step          Temp          E_pair         E_mol          TotEng         Press     
         7   3065.9779      1.3990955      2.0436082      4.2353212     -438.46452    
         8   3917.6559      1.4259357      1.7558944      4.1946236     -373.27966    
Loop time of 0.0037818 on 1 procs for 1 steps with 3 atoms

run 1 pre yes post no
PPPM initialization ...
  using 12-bit tables for long-range coulomb (src/kspace.cpp:342)
  G vector (1/distance) = 0.28934131
  grid = 18 18 18
  stencil order = 5
  estimated absolute RMS force accuracy = 7.7110449e-05
  estimated relative force accuracy = 5.3550243e-06
  using double precision KISS FFT
  3d grid and FFT values/proc = 15625 5832
Generated 0 of 21 mixed pair_coeff terms from geometric mixing rule
Per MPI rank memory allocation (min/avg/max) = 9.773 | 9.773 | 9.773 Mbytes
   Step          Temp          E_pair         E_mol          TotEng         Press     
         8   3917.6559      1.4259357      1.7558944      4.1946236     -373.27966    
         9   4818.1314      1.4602872      1.4573161      4.163188      -302.4192     
Loop time of 0.00382564 on 1 procs for 1 steps with 3 atoms

run 1 pre yes post no
PPPM initialization ...
  using 12-bit tables for long-range coulomb (src/kspace.cpp:342)
  G vector (1/distance) = 0.28934131
  grid = 18 18 18
  stencil order = 5
  estimated absolute RMS force accuracy = 7.7110449e-05
  estimated relative force accuracy = 5.3550243e-06
  using double precision KISS FFT
  3d grid and FFT values/proc = 15625 5832
Generated 0 of 21 mixed pair_coeff terms from geometric mixing rule
Per MPI rank memory allocation (min/avg/max) = 9.773 | 9.773 | 9.773 Mbytes
   Step          Temp          E_pair         E_mol          TotEng         Press     
         9   4818.1314      1.4602872      1.4573161      4.163188      -302.4192     
        10   5725.6318      1.5026279      1.1593834      4.1422033     -227.55826    
Loop time of 0.00276407 on 1 procs for 1 steps with 3 atoms

run 1 pre yes post no
PPPM initialization ...
  using 12-bit tables for long-range coulomb (src/kspace.cpp:342)
  G vector (1/distance) = 0.28934131
  grid = 18 18 18
  stencil order = 5
  estimated absolute RMS force accuracy = 7.7110449e-05
  estimated relative force accuracy = 5.3550243e-06
  using double precision KISS FFT
  3d grid and FFT values/proc = 15625 5832
Generated 0 of 21 mixed pair_coeff terms from geometric mixing rule
Per MPI rank memory allocation (min/avg/max) = 9.773 | 9.773 | 9.773 Mbytes
   Step          Temp          E_pair         E_mol          TotEng         Press     
        10   5725.6318      1.5026279      1.1593834      4.1422033     -227.55826    
        11   6586.4956      1.5528826      0.87474376     4.1303691     -150.81653    
Loop time of 0.0025186 on 1 procs for 1 steps with 3 atoms

run 1 pre yes post no
PPPM initialization ...
  using 12-bit tables for long-range coulomb (src/kspace.cpp:342)
  G vector (1/distance) = 0.28934131
  grid = 18 18 18
  stencil order = 5
  estimated absolute RMS force accuracy = 7.7110449e-05
  estimated relative force accuracy = 5.3550243e-06
  using double precision KISS FFT
  3d grid and FFT values/proc = 15625 5832
Generated 0 of 21 mixed pair_coeff terms from geometric mixing rule
Per MPI rank memory allocation (min/avg/max) = 9.773 | 9.773 | 9.773 Mbytes
   Step          Temp          E_pair         E_mol          TotEng         Press     
        11   6586.4956      1.5528826      0.87474376     4.1303691     -150.81653    
        12   7343.1521      1.6103618      0.6161003      4.124816      -74.579791    
Loop time of 0.00287495 on 1 procs for 1 steps with 3 atoms

run 1 pre yes post no
PPPM initialization ...
  using 12-bit tables for long-range coulomb (src/kspace.cpp:342)
  G vector (1/distance) = 0.28934131
  grid = 18 18 18
  stencil order = 5
  estimated absolute RMS force accuracy = 7.7110449e-05
  estimated relative force accuracy = 5.3550243e-06
  using double precision KISS FFT
  3d grid and FFT values/proc = 15625 5832
Generated 0 of 21 mixed pair_coeff terms from geometric mixing rule
Per MPI rank memory allocation (min/avg/max) = 9.773 | 9.773 | 9.773 Mbytes
   Step          Temp          E_pair         E_mol          TotEng         Press     
        12   7343.1521      1.6103618      0.6161003      4.124816      -74.579791    
        13   7945.3668      1.6738323      0.39479041     4.1226613     -1.2026167    
Loop time of 0.00440409 on 1 procs for 1 steps with 3 atoms

run 1 pre yes post no
PPPM initialization ...
  using 12-bit tables for long-range coulomb (src/kspace.cpp:342)
  G vector (1/distance) = 0.28934131
  grid = 18 18 18
  stencil order = 5
  estimated absolute RMS force accuracy = 7.7110449e-05
  estimated relative force accuracy = 5.3550243e-06
  using double precision KISS FFT
  3d grid and FFT values/proc = 15625 5832
Generated 0 of 21 mixed pair_coeff terms from geometric mixing rule
Per MPI rank memory allocation (min/avg/max) = 9.773 | 9.773 | 9.773 Mbytes
   Step          Temp          E_pair         E_mol          TotEng         Press     
        13   7945.3668      1.6738323      0.39479041     4.1226613     -1.2026167    
        14   8358.6338      1.7416796      0.21946058     4.1220166      67.264588    
Loop time of 0.00339141 on 1 procs for 1 steps with 3 atoms

run 1 pre yes post no
PPPM initialization ...
  using 12-bit tables for long-range coulomb (src/kspace.cpp:342)
  G vector (1/distance) = 0.28934131
  grid = 18 18 18
  stencil order = 5
  estimated absolute RMS force accuracy = 7.7110449e-05
  estimated relative force accuracy = 5.3550243e-06
  using double precision KISS FFT
  3d grid and FFT values/proc = 15625 5832
Generated 0 of 21 mixed pair_coeff terms from geometric mixing rule
Per MPI rank memory allocation (min/avg/max) = 9.773 | 9.773 | 9.773 Mbytes
   Step          Temp          E_pair         E_mol          TotEng         Press     
        14   8358.6338      1.7416796      0.21946058     4.1220166      67.264588    
        15   8567.0761      1.8120809      0.095168591    4.1220125      129.23427    
Loop time of 0.0039968 on 1 procs for 1 steps with 3 atoms

run 1 pre yes post no
PPPM initialization ...
  using 12-bit tables for long-range coulomb (src/kspace.cpp:342)
  G vector (1/distance) = 0.28934131
  grid = 18 18 18
  stencil order = 5
  estimated absolute RMS force accuracy = 7.7110449e-05
  estimated relative force accuracy = 5.3550243e-06
  using double precision KISS FFT
  3d grid and FFT values/proc = 15625 5832
Generated 0 of 21 mixed pair_coeff terms from geometric mixing rule
Per MPI rank memory allocation (min/avg/max) = 9.773 | 9.773 | 9.773 Mbytes
   Step          Temp          E_pair         E_mol          TotEng         Press     
        15   8567.0761      1.8120809      0.095168591    4.1220125      129.23427    
        16   8572.7114      1.8831452      0.022982383    4.1223474      183.63864    
Loop time of 0.00549564 on 1 procs for 1 steps with 3 atoms

run 1 pre yes post no
PPPM initialization ...
  using 12-bit tables for long-range coulomb (src/kspace.cpp:342)
  G vector (1/distance) = 0.28934131
  grid = 18 18 18
  stencil order = 5
  estimated absolute RMS force accuracy = 7.7110449e-05
  estimated relative force accuracy = 5.3550243e-06
  using double precision KISS FFT
  3d grid and FFT values/proc = 15625 5832
Generated 0 of 21 mixed pair_coeff terms from geometric mixing rule
Per MPI rank memory allocation (min/avg/max) = 9.773 | 9.773 | 9.773 Mbytes
   Step          Temp          E_pair         E_mol          TotEng         Press     
        16   8572.7114      1.8831452      0.022982383    4.1223474      183.63864    
        17   8393.5229      1.953026       8.8554107e-07  4.1229229      229.93095    
Loop time of 0.00377142 on 1 procs for 1 steps with 3 atoms

run 1 pre yes post no
PPPM initialization ...
  using 12-bit tables for long-range coulomb (src/kspace.cpp:342)
  G vector (1/distance) = 0.28934131
  grid = 18 18 18
  stencil order = 5
  estimated absolute RMS force accuracy = 7.7110449e-05
  estimated relative force accuracy = 5.3550243e-06
  using double precision KISS FFT
  3d grid and FFT values/proc = 15625 5832
Generated 0 of 21 mixed pair_coeff terms from geometric mixing rule
Per MPI rank memory allocation (min/avg/max) = 9.773 | 9.773 | 9.773 Mbytes
   Step          Temp          E_pair         E_mol          TotEng         Press     
        17   8393.5229      1.953026       8.8554107e-07  4.1229229      229.93095    
        18   8061.1109      2.0200015      0.019717919    4.1236801      268.05237    
Loop time of 0.00288381 on 1 procs for 1 steps with 3 atoms

run 1 pre yes post no
PPPM initialization ...
  using 12-bit tables for long-range coulomb (src/kspace.cpp:342)
  G vector (1/distance) = 0.28934131
  grid = 18 18 18
  stencil order = 5
  estimated absolute RMS force accuracy = 7.7110449e-05
  estimated relative force accuracy = 5.3550243e-06
  using double precision KISS FFT
  3d grid and FFT values/proc = 15625 5832
Generated 0 of 21 mixed pair_coeff terms from geometric mixing rule
Per MPI rank memory allocation (min/avg/max) = 9.773 | 9.773 | 9.773 Mbytes
   Step          Temp          E_pair         E_mol          TotEng         Press     
        18   8061.1109      2.0200015      0.019717919    4.1236801      268.05237    
        19   7617.7685      2.0825313      0.072675658    4.1245546      298.36738    
Loop time of 0.00313271 on 1 procs for 1 steps with 3 atoms

run 1 pre yes post no
PPPM initialization ...
  using 12-bit tables for long-range coulomb (src/kspace.cpp:342)
  G vector (1/distance) = 0.28934131
  grid = 18 18 18
  stencil order = 5
  estimated absolute RMS force accuracy = 7.7110449e-05
  estimated relative force accuracy = 5.3550243e-06
  using double precision KISS FFT
  3d grid and FFT values/proc = 15625 5832
Generated 0 of 21 mixed pair_coeff terms from geometric mixing rule
Per MPI rank memory allocation (min/avg/max) = 9.773 | 9.773 | 9.773 Mbytes
   Step          Temp          E_pair         E_mol          TotEng         Press     
        19   7617.7685      2.0825313      0.072675658    4.1245546      298.36738    
        20   7112.8637      2.1393018      0.1473569      4.1254782      321.56984    
Loop time of 0.0025775 on 1 procs for 1 steps with 3 atoms

run 1 pre yes post no
PPPM initialization ...
  using 12-bit tables for long-range coulomb (src/kspace.cpp:342)
  G vector (1/distance) = 0.28934131
  grid = 18 18 18
  stencil order = 5
  estimated absolute RMS force accuracy = 7.7110449e-05
  estimated relative force accuracy = 5.3550243e-06
  using double precision KISS FFT
  3d grid and FFT values/proc = 15625 5832
Generated 0 of 21 mixed pair_coeff terms from geometric mixing rule
Per MPI rank memory allocation (min/avg/max) = 9.773 | 9.773 | 9.773 Mbytes
   Step          Temp          E_pair         E_mol          TotEng         Press     
        20   7112.8637      2.1393018      0.1473569      4.1254782      321.56984    
        21   6598.652       2.1892337      0.23125178     4.1263709      338.56511    
Loop time of 0.00258097 on 1 procs for 1 steps with 3 atoms

run 1 pre yes post no
PPPM initialization ...
  using 12-bit tables for long-range coulomb (src/kspace.cpp:342)
  G vector (1/distance) = 0.28934131
  grid = 18 18 18
  stencil order = 5
  estimated absolute RMS force accuracy = 7.7110449e-05
  estimated relative force accuracy = 5.3550243e-06
  using double precision KISS FFT
  3d grid and FFT values/proc = 15625 5832
Generated 0 of 21 mixed pair_coeff terms from geometric mixing rule
Per MPI rank memory allocation (min/avg/max) = 9.773 | 9.773 | 9.773 Mbytes
   Step          Temp          E_pair         E_mol          TotEng         Press     
        21   6598.652       2.1892337      0.23125178     4.1263709      338.56511    
        22   6125.7938      2.2314984      0.31201647     4.1271568      350.3397     
Loop time of 0.00259091 on 1 procs for 1 steps with 3 atoms

run 1 pre yes post no
PPPM initialization ...
  using 12-bit tables for long-range coulomb (src/kspace.cpp:342)
  G vector (1/distance) = 0.28934131
  grid = 18 18 18
  stencil order = 5
  estimated absolute RMS force accuracy = 7.7110449e-05
  estimated relative force accuracy = 5.3550243e-06
  using double precision KISS FFT
  3d grid and FFT values/proc = 15625 5832
Generated 0 of 21 mixed pair_coeff terms from geometric mixing rule
Per MPI rank memory allocation (min/avg/max) = 9.773 | 9.773 | 9.773 Mbytes
   Step          Temp          E_pair         E_mol          TotEng         Press     
        22   6125.7938      2.2314984      0.31201647     4.1271568      350.3397     
        23   5738.9362      2.2655095      0.3786254      4.1277663      357.82946    
Loop time of 0.00296003 on 1 procs for 1 steps with 3 atoms

run 1 pre yes post no
PPPM initialization ...
  using 12-bit tables for long-range coulomb (src/kspace.cpp:342)
  G vector (1/distance) = 0.28934131
  grid = 18 18 18
  stencil order = 5
  estimated absolute RMS force accuracy = 7.7110449e-05
  estimated relative force accuracy = 5.3550243e-06
  using double precision KISS FFT
  3d grid and FFT values/proc = 15625 5832
Generated 0 of 21 mixed pair_coeff terms from geometric mixing rule
Per MPI rank memory allocation (min/avg/max) = 9.773 | 9.773 | 9.773 Mbytes
   Step          Temp          E_pair         E_mol          TotEng         Press     
        23   5738.9362      2.2655095      0.3786254      4.1277663      357.82946    
        24   5472.7572      2.2909171      0.4224089      4.1281447      361.80027    
Loop time of 0.00257357 on 1 procs for 1 steps with 3 atoms

run 1 pre yes post no
PPPM initialization ...
  using 12-bit tables for long-range coulomb (src/kspace.cpp:342)
  G vector (1/distance) = 0.28934131
  grid = 18 18 18
  stencil order = 5
  estimated absolute RMS force accuracy = 7.7110449e-05
  estimated relative force accuracy = 5.3550243e-06
  using double precision KISS FFT
  3d grid and FFT values/proc = 15625 5832
Generated 0 of 21 mixed pair_coeff terms from geometric mixing rule
Per MPI rank memory allocation (min/avg/max) = 9.773 | 9.773 | 9.773 Mbytes
   Step          Temp          E_pair         E_mol          TotEng         Press     
        24   5472.7572      2.2909171      0.4224089      4.1281447      361.80027    
        25   5348.8695      2.3075965      0.43787008     4.1282579      362.75349    
Loop time of 0.00267681 on 1 procs for 1 steps with 3 atoms

run 1 pre yes post no
PPPM initialization ...
  using 12-bit tables for long-range coulomb (src/kspace.cpp:342)
  G vector (1/distance) = 0.28934131
  grid = 18 18 18
  stencil order = 5
  estimated absolute RMS force accuracy = 7.7110449e-05
  estimated relative force accuracy = 5.3550243e-06
  using double precision KISS FFT
  3d grid and FFT values/proc = 15625 5832
Generated 0 of 21 mixed pair_coeff terms from geometric mixing rule
Per MPI rank memory allocation (min/avg/max) = 9.773 | 9.773 | 9.773 Mbytes
   Step          Temp          E_pair         E_mol          TotEng         Press     
        25   5348.8695      2.3075965      0.43787008     4.1282579      362.75349    
        26   5373.9189      2.315639       0.4231913      4.1280974      360.86709    
Loop time of 0.00291985 on 1 procs for 1 steps with 3 atoms

run 1 pre yes post no
PPPM initialization ...
  using 12-bit tables for long-range coulomb (src/kspace.cpp:342)
  G vector (1/distance) = 0.28934131
  grid = 18 18 18
  stencil order = 5
  estimated absolute RMS force accuracy = 7.7110449e-05
  estimated relative force accuracy = 5.3550243e-06
  using double precision KISS FFT
  3d grid and FFT values/proc = 15625 5832
Generated 0 of 21 mixed pair_coeff terms from geometric mixing rule
Per MPI rank memory allocation (min/avg/max) = 9.773 | 9.773 | 9.773 Mbytes
   Step          Temp          E_pair         E_mol          TotEng         Press     
        26   5373.9189      2.315639       0.4231913      4.1280974      360.86709    
        27   5539.0935      2.3153392      0.38037273     4.12768        355.97867    
Loop time of 0.00320309 on 1 procs for 1 steps with 3 atoms

run 1 pre yes post no
PPPM initialization ...
  using 12-bit tables for long-range coulomb (src/kspace.cpp:342)
  G vector (1/distance) = 0.28934131
  grid = 18 18 18
  stencil order = 5
  estimated absolute RMS force accuracy = 7.7110449e-05
  estimated relative force accuracy = 5.3550243e-06
  using double precision KISS FFT
  3d grid and FFT values/proc = 15625 5832
Generated 0 of 21 mixed pair_coeff terms from geometric mixing rule
Per MPI rank memory allocation (min/avg/max) = 9.773 | 9.773 | 9.773 Mbytes
   Step          Temp          E_pair         E_mol          TotEng         Press     
        27   5539.0935      2.3153392      0.38037273     4.12768        355.97867    
        28   5821.0965      2.3071875      0.31498908     4.1270481      347.61264    
Loop time of 0.00286615 on 1 procs for 1 steps with 3 atoms

run 1 pre yes post no
PPPM initialization ...
  using 12-bit tables for long-range coulomb (src/kspace.cpp:342)
  G vector (1/distance) = 0.28934131
  grid = 18 18 18
  stencil order = 5
  estimated absolute RMS force accuracy = 7.7110449e-05
  estimated relative force accuracy = 5.3550243e-06
  using double precision KISS FFT
  3d grid and FFT values/proc = 15625 5832
Generated 0 of 21 mixed pair_coeff terms from geometric mixing rule
Per MPI rank memory allocation (min/avg/max) = 9.773 | 9.773 | 9.773 Mbytes
   Step          Temp          E_pair         E_mol          TotEng         Press     
        28   5821.0965      2.3071875      0.31498908     4.1270481      347.61264    
        29   6184.4666      2.2918534      0.23559632     4.1262599      335.04721    
Loop time of 0.00345409 on 1 procs for 1 steps with 3 atoms

run 1 pre yes post no
PPPM initialization ...
  using 12-bit tables for long-range coulomb (src/kspace.cpp:342)
  G vector (1/distance) = 0.28934131
  grid = 18 18 18
  stencil order = 5
  estimated absolute RMS force accuracy = 7.7110449e-05
  estimated relative force accuracy = 5.3550243e-06
  using double precision KISS FFT
  3d grid and FFT values/proc = 15625 5832
Generated 0 of 21 mixed pair_coeff terms from geometric mixing rule
Per MPI rank memory allocation (min/avg/max) = 9.773 | 9.773 | 9.773 Mbytes
   Step          Temp          E_pair         E_mol          TotEng         Press     
        29   6184.4666      2.2918534      0.23559632     4.1262599      335.04721    
        30   6584.9733      2.2701802      0.15286011     4.1253895      317.41394    
Loop time of 0.00325421 on 1 procs for 1 steps with 3 atoms

run 1 pre yes post no
PPPM initialization ...
  using 12-bit tables for long-range coulomb (src/kspace.cpp:342)
  G vector (1/distance) = 0.28934131
  grid = 18 18 18
  stencil order = 5
  estimated absolute RMS force accuracy = 7.7110449e-05
  estimated relative force accuracy = 5.3550243e-06
  using double precision KISS FFT
  3d grid and FFT values/proc = 15625 5832
Generated 0 of 21 mixed pair_coeff terms from geometric mixing rule
Per MPI rank memory allocation (min/avg/max) = 9.773 | 9.773 | 9.773 Mbytes
   Step          Temp          E_pair         E_mol          TotEng         Press     
        30   6584.9733      2.2701802      0.15286011     4.1253895      317.41394    
        31   6973.7241      2.2431598      0.078503494    4.1245125      293.81743    
Loop time of 0.0030634 on 1 procs for 1 steps with 3 atoms

run 1 pre yes post no
PPPM initialization ...
  using 12-bit tables for long-range coulomb (src/kspace.cpp:342)
  G vector (1/distance) = 0.28934131
  grid = 18 18 18
  stencil order = 5
  estimated absolute RMS force accuracy = 7.7110449e-05
  estimated relative force accuracy = 5.3550243e-06
  using double precision KISS FFT
  3d grid and FFT values/proc = 15625 5832
Generated 0 of 21 mixed pair_coeff terms from geometric mixing rule
Per MPI rank memory allocation (min/avg/max) = 9.773 | 9.773 | 9.773 Mbytes
   Step          Temp          E_pair         E_mol          TotEng         Press     
        31   6973.7241      2.2431598      0.078503494    4.1245125      293.81743    
        32   7301.5744      2.2119162      0.024181488    4.1237028      263.46343    
Loop time of 0.00264258 on 1 procs for 1 steps with 3 atoms

run 1 pre yes post no
PPPM initialization ...
  using 12-bit tables for long-range coulomb (src/kspace.cpp:342)
  G vector (1/distance) = 0.28934131
  grid = 18 18 18
  stencil order = 5
  estimated absolute RMS force accuracy = 7.7110449e-05
  estimated relative force accuracy = 5.3550243e-06
  using double precision KISS FFT
  3d grid and FFT values/proc = 15625 5832
Generated 0 of 21 mixed pair_coeff terms from geometric mixing rule
Per MPI rank memory allocation (min/avg/max) = 9.773 | 9.773 | 9.773 Mbytes
   Step          Temp          E_pair         E_mol          TotEng         Press     
        32   7301.5744      2.2119162      0.024181488    4.1237028      263.46343    
        33   7523.4466      2.1776766      0.00038677024  4.123027       225.7824     
Loop time of 0.00268142 on 1 procs for 1 steps with 3 atoms

run 1 pre yes post no
PPPM initialization ...
  using 12-bit tables for long-range coulomb (src/kspace.cpp:342)
  G vector (1/distance) = 0.28934131
  grid = 18 18 18
  stencil order = 5
  estimated absolute RMS force accuracy = 7.7110449e-05
  estimated relative force accuracy = 5.3550243e-06
  using double precision KISS FFT
  3d grid and FFT values/proc = 15625 5832
Generated 0 of 21 mixed pair_coeff terms from geometric mixing rule
Per MPI rank memory allocation (min/avg/max) = 9.773 | 9.773 | 9.773 Mbytes
   Step          Temp          E_pair         E_mol          TotEng         Press     
        33   7523.4466      2.1776766      0.00038677024  4.123027       225.7824     
        34   7602.2105      2.1417362      0.015477262    4.1225391      180.53741    
Loop time of 0.00264162 on 1 procs for 1 steps with 3 atoms

run 1 pre yes post no
PPPM initialization ...
  using 12-bit tables for long-range coulomb (src/kspace.cpp:342)
  G vector (1/distance) = 0.28934131
  grid = 18 18 18
  stencil order = 5
  estimated absolute RMS force accuracy = 7.7110449e-05
  estimated relative force accuracy = 5.3550243e-06
  using double precision KISS FFT
  3d grid and FFT values/proc = 15625 5832
Generated 0 of 21 mixed pair_coeff terms from geometric mixing rule
Per MPI rank memory allocation (min/avg/max) = 9.773 | 9.773 | 9.773 Mbytes
   Step          Temp          E_pair         E_mol          TotEng         Press     
        34   7602.2105      2.1417362      0.015477262    4.1225391      180.53741    
        35   7511.8425      2.1054145      0.074898417    4.1222767      127.90746    
Loop time of 0.00257443 on 1 procs for 1 steps with 3 atoms

run 1 pre yes post no
PPPM initialization ...
  using 12-bit tables for long-range coulomb (src/kspace.cpp:342)
  G vector (1/distance) = 0.28934131
  grid = 18 18 18
  stencil order = 5
  estimated absolute RMS force accuracy = 7.7110449e-05
  estimated relative force accuracy = 5.3550243e-06
  using double precision KISS FFT
  3d grid and FFT values/proc = 15625 5832
Generated 0 of 21 mixed pair_coeff terms from geometric mixing rule
Per MPI rank memory allocation (min/avg/max) = 9.773 | 9.773 | 9.773 Mbytes
   Step          Temp          E_pair         E_mol          TotEng         Press     
        35   7511.8425      2.1054145      0.074898417    4.1222767      127.90746    
        36   7239.6559      2.07001        0.18065276     4.1222607      68.539573    
Loop time of 0.00249124 on 1 procs for 1 steps with 3 atoms

run 1 pre yes post no
PPPM initialization ...
  using 12-bit tables for long-range coulomb (src/kspace.cpp:342)
  G vector (1/distance) = 0.28934131
  grid = 18 18 18
  stencil order = 5
  estimated absolute RMS force accuracy = 7.7110449e-05
  estimated relative force accuracy = 5.3550243e-06
  using double precision KISS FFT
  3d grid and FFT values/proc = 15625 5832
Generated 0 of 21 mixed pair_coeff terms from geometric mixing rule
Per MPI rank memory allocation (min/avg/max) = 9.773 | 9.773 | 9.773 Mbytes
   Step          Temp          E_pair         E_mol          TotEng         Press     
        36   7239.6559      2.07001        0.18065276     4.1222607      68.539573    
        37   6787.4697      2.0367472      0.33104885     4.1224947      3.5654941    
Loop time of 0.00269868 on 1 procs for 1 steps with 3 atoms

run 1 pre yes post no
PPPM initialization ...
  using 12-bit tables for long-range coulomb (src/kspace.cpp:342)
  G vector (1/distance) = 0.28934131
  grid = 18 18 18
  stencil order = 5
  estimated absolute RMS force accuracy = 7.7110449e-05
  estimated relative force accuracy = 5.3550243e-06
  using double precision KISS FFT
  3d grid and FFT values/proc = 15625 5832
Generated 0 of 21 mixed pair_coeff terms from geometric mixing rule
Per MPI rank memory allocation (min/avg/max) = 9.773 | 9.773 | 9.773 Mbytes
   Step          Temp          E_pair         E_mol          TotEng         Press     
        37   6787.4697      2.0367472      0.33104885     4.1224947      3.5654941    
        38   6171.6624      2.0067377      0.5207419      4.1229795     -65.418018    
Loop time of 0.00277809 on 1 procs for 1 steps with 3 atoms

run 1 pre yes post no
PPPM initialization ...
  using 12-bit tables for long-range coulomb (src/kspace.cpp:342)
  G vector (1/distance) = 0.28934131
  grid = 18 18 18
  stencil order = 5
  estimated absolute RMS force accuracy = 7.7110449e-05
  estimated relative force accuracy = 5.3550243e-06
  using double precision KISS FFT
  3d grid and FFT values/proc = 15625 5832
Generated 0 of 21 mixed pair_coeff terms from geometric mixing rule
Per MPI rank memory allocation (min/avg/max) = 9.773 | 9.773 | 9.773 Mbytes
   Step          Temp          E_pair         E_mol          TotEng         Press     
        38   6171.6624      2.0067377      0.5207419      4.1229795     -65.418018    
        39   5422.1164      1.9809317      0.7410597      4.1237185     -136.4058     
Loop time of 0.00252607 on 1 procs for 1 steps with 3 atoms

run 1 pre yes post no
PPPM initialization ...
  using 12-bit tables for long-range coulomb (src/kspace.cpp:342)
  G vector (1/distance) = 0.28934131
  grid = 18 18 18
  stencil order = 5
  estimated absolute RMS force accuracy = 7.7110449e-05
  estimated relative force accuracy = 5.3550243e-06
  using double precision KISS FFT
  3d grid and FFT values/proc = 15625 5832
Generated 0 of 21 mixed pair_coeff terms from geometric mixing rule
Per MPI rank memory allocation (min/avg/max) = 9.773 | 9.773 | 9.773 Mbytes
   Step          Temp          E_pair         E_mol          TotEng         Press     
        39   5422.1164      1.9809317      0.7410597      4.1237185     -136.4058     
        40   4580.0948      1.960091       0.98058992     4.1247283     -207.07458    
Loop time of 0.0025114 on 1 procs for 1 steps with 3 atoms

run 1 pre yes post no
PPPM initialization ...
  using 12-bit tables for long-range coulomb (src/kspace.cpp:342)
  G vector (1/distance) = 0.28934131
  grid = 18 18 18
  stencil order = 5
  estimated absolute RMS force accuracy = 7.7110449e-05
  estimated relative force accuracy = 5.3550243e-06
  using double precision KISS FFT
  3d grid and FFT values/proc = 15625 5832
Generated 0 of 21 mixed pair_coeff terms from geometric mixing rule
Per MPI rank memory allocation (min/avg/max) = 9.773 | 9.773 | 9.773 Mbytes
   Step          Temp          E_pair         E_mol          TotEng         Press     
        40   4580.0948      1.960091       0.98058992     4.1247283     -207.07458    
        41   3695.1265      1.9447775      1.2259865      4.1260292     -274.90347    
Loop time of 0.0025856 on 1 procs for 1 steps with 3 atoms

run 1 pre yes post no
PPPM initialization ...
  using 12-bit tables for long-range coulomb (src/kspace.cpp:342)
  G vector (1/distance) = 0.28934131
  grid = 18 18 18
  stencil order = 5
  estimated absolute RMS force accuracy = 7.7110449e-05
  estimated relative force accuracy = 5.3550243e-06
  using double precision KISS FFT
  3d grid and FFT values/proc = 15625 5832
Generated 0 of 21 mixed pair_coeff terms from geometric mixing rule
Per MPI rank memory allocation (min/avg/max) = 9.773 | 9.773 | 9.773 Mbytes
   Step          Temp          E_pair         E_mol          TotEng         Press     
        41   3695.1265      1.9447775      1.2259865      4.1260292     -274.90347    
        42   2821.0971      1.9353427      1.4629315      4.1275851     -337.31712    
Loop time of 0.00289547 on 1 procs for 1 steps with 3 atoms

run 1 pre yes post no
PPPM initialization ...
  using 12-bit tables for long-range coulomb (src/kspace.cpp:342)
  G vector (1/distance) = 0.28934131
  grid = 18 18 18
  stencil order = 5
  estimated absolute RMS force accuracy = 7.7110449e-05
  estimated relative force accuracy = 5.3550243e-06
  using double precision KISS FFT
  3d grid and FFT values/proc = 15625 5832
Generated 0 of 21 mixed pair_coeff terms from geometric mixing rule
Per MPI rank memory allocation (min/avg/max) = 9.773 | 9.773 | 9.773 Mbytes
   Step          Temp          E_pair         E_mol          TotEng         Press     
        42   2821.0971      1.9353427      1.4629315      4.1275851     -337.31712    
        43   2011.9664      1.9319553      1.6771691      4.1292586     -391.83663    
Loop time of 0.00366719 on 1 procs for 1 steps with 3 atoms

run 1 pre yes post no
PPPM initialization ...
  using 12-bit tables for long-range coulomb (src/kspace.cpp:342)
  G vector (1/distance) = 0.28934131
  grid = 18 18 18
  stencil order = 5
  estimated absolute RMS force accuracy = 7.7110449e-05
  estimated relative force accuracy = 5.3550243e-06
  using double precision KISS FFT
  3d grid and FFT values/proc = 15625 5832
Generated 0 of 21 mixed pair_coeff terms from geometric mixing rule
Per MPI rank memory allocation (min/avg/max) = 9.773 | 9.773 | 9.773 Mbytes
   Step          Temp          E_pair         E_mol          TotEng         Press     
        43   2011.9664      1.9319553      1.6771691      4.1292586     -391.83663    
        44   1317.6878      1.9346203      1.8555181      4.1307874     -436.22318    
Loop time of 0.00258759 on 1 procs for 1 steps with 3 atoms

run 1 pre yes post no
PPPM initialization ...
  using 12-bit tables for long-range coulomb (src/kspace.cpp:342)
  G vector (1/distance) = 0.28934131
  grid = 18 18 18
  stencil order = 5
  estimated absolute RMS force accuracy = 7.7110449e-05
  estimated relative force accuracy = 5.3550243e-06
  using double precision KISS FFT
  3d grid and FFT values/proc = 15625 5832
Generated 0 of 21 mixed pair_coeff terms from geometric mixing rule
Per MPI rank memory allocation (min/avg/max) = 9.773 | 9.773 | 9.773 Mbytes
   Step          Temp          E_pair         E_mol          TotEng         Press     
        44   1317.6878      1.9346203      1.8555181      4.1307874     -436.22318    
        45   780.79131      1.9432284      1.9867855      4.1318643     -468.59994    
Loop time of 0.0025801 on 1 procs for 1 steps with 3 atoms

run 1 pre yes post no
PPPM initialization ...
  using 12-bit tables for long-range coulomb (src/kspace.cpp:342)
  G vector (1/distance) = 0.28934131
  grid = 18 18 18
  stencil order = 5
  estimated absolute RMS force accuracy = 7.7110449e-05
  estimated relative force accuracy = 5.3550243e-06
  using double precision KISS FFT
  3d grid and FFT values/proc = 15625 5832
Generated 0 of 21 mixed pair_coeff terms from geometric mixing rule
Per MPI rank memory allocation (min/avg/max) = 9.773 | 9.773 | 9.773 Mbytes
   Step          Temp          E_pair         E_mol          TotEng         Press     
        45   780.79131      1.9432284      1.9867855      4.1318643     -468.59994    
        46   433.76243      1.9575921      2.0625277      4.1322562     -487.54922    
Loop time of 0.00298012 on 1 procs for 1 steps with 3 atoms

run 1 pre yes post no
PPPM initialization ...
  using 12-bit tables for long-range coulomb (src/kspace.cpp:342)
  G vector (1/distance) = 0.28934131
  grid = 18 18 18
  stencil order = 5
  estimated absolute RMS force accuracy = 7.7110449e-05
  estimated relative force accuracy = 5.3550243e-06
  using double precision KISS FFT
  3d grid and FFT values/proc = 15625 5832
Generated 0 of 21 mixed pair_coeff terms from geometric mixing rule
Per MPI rank memory allocation (min/avg/max) = 9.773 | 9.773 | 9.773 Mbytes
   Step          Temp          E_pair         E_mol          TotEng         Press     
        46   433.76243      1.9575921      2.0625277      4.1322562     -487.54922    
        47   297.06459      1.9774837      2.077632       4.1319129     -492.18662    
Loop time of 0.00260621 on 1 procs for 1 steps with 3 atoms

run 1 pre yes post no
PPPM initialization ...
  using 12-bit tables for long-range coulomb (src/kspace.cpp:342)
  G vector (1/distance) = 0.28934131
  grid = 18 18 18
  stencil order = 5
  estimated absolute RMS force accuracy = 7.7110449e-05
  estimated relative force accuracy = 5.3550243e-06
  using double precision KISS FFT
  3d grid and FFT values/proc = 15625 5832
Generated 0 of 21 mixed pair_coeff terms from geometric mixing rule
Per MPI rank memory allocation (min/avg/max) = 9.773 | 9.773 | 9.773 Mbytes
   Step          Temp          E_pair         E_mol          TotEng         Press     
        47   297.06459      1.9774837      2.077632       4.1319129     -492.18662    
        48   377.64071      2.0026546      2.0307007      4.1309831     -482.21561    
Loop time of 0.0032723 on 1 procs for 1 steps with 3 atoms

run 1 pre yes post no
PPPM initialization ...
  using 12-bit tables for long-range coulomb (src/kspace.cpp:342)
  G vector (1/distance) = 0.28934131
  grid = 18 18 18
  stencil order = 5
  estimated absolute RMS force accuracy = 7.7110449e-05
  estimated relative force accuracy = 5.3550243e-06
  using double precision KISS FFT
  3d grid and FFT values/proc = 15625 5832
Generated 0 of 21 mixed pair_coeff terms from geometric mixing rule
Per MPI rank memory allocation (min/avg/max) = 9.773 | 9.773 | 9.773 Mbytes
   Step          Temp          E_pair         E_mol          TotEng         Press     
        48   377.64071      2.0026546      2.0307007      4.1309831     -482.21561    
        49   667.94787      2.0328383      1.924214       4.1297303     -457.95962    
Loop time of 0.00256126 on 1 procs for 1 steps with 3 atoms

run 1 pre yes post no
PPPM initialization ...
  using 12-bit tables for long-range coulomb (src/kspace.cpp:342)
  G vector (1/distance) = 0.28934131
  grid = 18 18 18
  stencil order = 5
  estimated absolute RMS force accuracy = 7.7110449e-05
  estimated relative force accuracy = 5.3550243e-06
  using double precision KISS FFT
  3d grid and FFT values/proc = 15625 5832
Generated 0 of 21 mixed pair_coeff terms from geometric mixing rule
Per MPI rank memory allocation (min/avg/max) = 9.773 | 9.773 | 9.773 Mbytes
   Step          Temp          E_pair         E_mol          TotEng         Press     
        49   667.94787      2.0328383      1.924214       4.1297303     -457.95962    
        50   1145.8389      2.0677419      1.7644417      4.1284062     -420.36296    
Loop time of 0.00297005 on 1 procs for 1 steps with 3 atoms

run 1 pre yes post no
PPPM initialization ...
  using 12-bit tables for long-range coulomb (src/kspace.cpp:342)
  G vector (1/distance) = 0.28934131
  grid = 18 18 18
  stencil order = 5
  estimated absolute RMS force accuracy = 7.7110449e-05
  estimated relative force accuracy = 5.3550243e-06
  using double precision KISS FFT
  3d grid and FFT values/proc = 15625 5832
Generated 0 of 21 mixed pair_coeff terms from geometric mixing rule
Per MPI rank memory allocation (min/avg/max) = 9.773 | 9.773 | 9.773 Mbytes
   Step          Temp          E_pair         E_mol          TotEng         Press     
        50   1145.8389      2.0677419      1.7644417      4.1284062     -420.36296    
        51   1775.6689      2.1070299      1.5610823      4.1271587     -370.9504     
Loop time of 0.00345332 on 1 procs for 1 steps with 3 atoms

run 1 pre yes post no
PPPM initialization ...
  using 12-bit tables for long-range coulomb (src/kspace.cpp:342)
  G vector (1/distance) = 0.28934131
  grid = 18 18 18
  stencil order = 5
  estimated absolute RMS force accuracy = 7.7110449e-05
  estimated relative force accuracy = 5.3550243e-06
  using double precision KISS FFT
  3d grid and FFT values/proc = 15625 5832
Generated 0 of 21 mixed pair_coeff terms from geometric mixing rule
Per MPI rank memory allocation (min/avg/max) = 9.773 | 9.773 | 9.773 Mbytes
   Step          Temp          E_pair         E_mol          TotEng         Press     
        51   1775.6689      2.1070299      1.5610823      4.1271587     -370.9504     
        52   2510.7704      2.150308       1.3266321      4.1260252     -311.74158    
Loop time of 0.00310838 on 1 procs for 1 steps with 3 atoms

run 1 pre yes post no
PPPM initialization ...
  using 12-bit tables for long-range coulomb (src/kspace.cpp:342)
  G vector (1/distance) = 0.28934131
  grid = 18 18 18
  stencil order = 5
  estimated absolute RMS force accuracy = 7.7110449e-05
  estimated relative force accuracy = 5.3550243e-06
  using double precision KISS FFT
  3d grid and FFT values/proc = 15625 5832
Generated 0 of 21 mixed pair_coeff terms from geometric mixing rule
Per MPI rank memory allocation (min/avg/max) = 9.773 | 9.773 | 9.773 Mbytes
   Step          Temp          E_pair         E_mol          TotEng         Press     
        52   2510.7704      2.150308       1.3266321      4.1260252     -311.74158    
        53   3297.0386      2.1971117      1.0755271      4.1249902     -245.12672    
Loop time of 0.00296778 on 1 procs for 1 steps with 3 atoms

run 1 pre yes post no
PPPM initialization ...
  using 12-bit tables for long-range coulomb (src/kspace.cpp:342)
  G vector (1/distance) = 0.28934131
  grid = 18 18 18
  stencil order = 5
  estimated absolute RMS force accuracy = 7.7110449e-05
  estimated relative force accuracy = 5.3550243e-06
  using double precision KISS FFT
  3d grid and FFT values/proc = 15625 5832
Generated 0 of 21 mixed pair_coeff terms from geometric mixing rule
Per MPI rank memory allocation (min/avg/max) = 9.773 | 9.773 | 9.773 Mbytes
   Step          Temp          E_pair         E_mol          TotEng         Press     
        53   3297.0386      2.1971117      1.0755271      4.1249902     -245.12672    
        54   4077.0991      2.2468951      0.82313478     4.1240427     -173.7191     
Loop time of 0.00247247 on 1 procs for 1 steps with 3 atoms

run 1 pre yes post no
PPPM initialization ...
  using 12-bit tables for long-range coulomb (src/kspace.cpp:342)
  G vector (1/distance) = 0.28934131
  grid = 18 18 18
  stencil order = 5
  estimated absolute RMS force accuracy = 7.7110449e-05
  estimated relative force accuracy = 5.3550243e-06
  using double precision KISS FFT
  3d grid and FFT values/proc = 15625 5832
Generated 0 of 21 mixed pair_coeff terms from geometric mixing rule
Per MPI rank memory allocation (min/avg/max) = 9.773 | 9.773 | 9.773 Mbytes
   Step          Temp          E_pair         E_mol          TotEng         Press     
        54   4077.0991      2.2468951      0.82313478     4.1240427     -173.7191     
        55   4794.562       2.2990307      0.58468153     4.1232038     -100.19925    
Loop time of 0.00286001 on 1 procs for 1 steps with 3 atoms

run 1 pre yes post no
PPPM initialization ...
  using 12-bit tables for long-range coulomb (src/kspace.cpp:342)
  G vector (1/distance) = 0.28934131
  grid = 18 18 18
  stencil order = 5
  estimated absolute RMS force accuracy = 7.7110449e-05
  estimated relative force accuracy = 5.3550243e-06
  using double precision KISS FFT
  3d grid and FFT values/proc = 15625 5832
Generated 0 of 21 mixed pair_coeff terms from geometric mixing rule
Per MPI rank memory allocation (min/avg/max) = 9.773 | 9.773 | 9.773 Mbytes
   Step          Temp          E_pair         E_mol          TotEng         Press     
        55   4794.562       2.2990307      0.58468153     4.1232038     -100.19925    
        56   5398.053       2.3528038      0.37420217     4.1225121     -27.16365     
Loop time of 0.00283744 on 1 procs for 1 steps with 3 atoms

run 1 pre yes post no
PPPM initialization ...
  using 12-bit tables for long-range coulomb (src/kspace.cpp:342)
  G vector (1/distance) = 0.28934131
  grid = 18 18 18
  stencil order = 5
  estimated absolute RMS force accuracy = 7.7110449e-05
  estimated relative force accuracy = 5.3550243e-06
  using double precision KISS FFT
  3d grid and FFT values/proc = 15625 5832
Generated 0 of 21 mixed pair_coeff terms from geometric mixing rule
Per MPI rank memory allocation (min/avg/max) = 9.773 | 9.773 | 9.773 Mbytes
   Step          Temp          E_pair         E_mol          TotEng         Press     
        56   5398.053       2.3528038      0.37420217     4.1225121     -27.16365     
        57   5844.8229      2.407425       0.20358239     4.1220127      43.014748    
Loop time of 0.00254462 on 1 procs for 1 steps with 3 atoms

run 1 pre yes post no
PPPM initialization ...
  using 12-bit tables for long-range coulomb (src/kspace.cpp:342)
  G vector (1/distance) = 0.28934131
  grid = 18 18 18
  stencil order = 5
  estimated absolute RMS force accuracy = 7.7110449e-05
  estimated relative force accuracy = 5.3550243e-06
  using double precision KISS FFT
  3d grid and FFT values/proc = 15625 5832
Generated 0 of 21 mixed pair_coeff terms from geometric mixing rule
Per MPI rank memory allocation (min/avg/max) = 9.773 | 9.773 | 9.773 Mbytes
   Step          Temp          E_pair         E_mol          TotEng         Press     
        57   5844.8229      2.407425       0.20358239     4.1220127      43.014748    
        58   6103.749       2.4620387      0.081758729    4.1217404      108.30575    
Loop time of 0.00247162 on 1 procs for 1 steps with 3 atoms

run 1 pre yes post no
PPPM initialization ...
  using 12-bit tables for long-range coulomb (src/kspace.cpp:342)
  G vector (1/distance) = 0.28934131
  grid = 18 18 18
  stencil order = 5
  estimated absolute RMS force accuracy = 7.7110449e-05
  estimated relative force accuracy = 5.3550243e-06
  using double precision KISS FFT
  3d grid and FFT values/proc = 15625 5832
Generated 0 of 21 mixed pair_coeff terms from geometric mixing rule
Per MPI rank memory allocation (min/avg/max) = 9.773 | 9.773 | 9.773 Mbytes
   Step          Temp          E_pair         E_mol          TotEng         Press     
        58   6103.749       2.4620387      0.081758729    4.1217404      108.30575    
        59   6157.5274      2.5157387      0.014128763    4.1217132      167.1145     
Loop time of 0.00268554 on 1 procs for 1 steps with 3 atoms

run 1 pre yes post no
PPPM initialization ...
  using 12-bit tables for long-range coulomb (src/kspace.cpp:342)
  G vector (1/distance) = 0.28934131
  grid = 18 18 18
  stencil order = 5
  estimated absolute RMS force accuracy = 7.7110449e-05
  estimated relative force accuracy = 5.3550243e-06
  using double precision KISS FFT
  3d grid and FFT values/proc = 15625 5832
Generated 0 of 21 mixed pair_coeff terms from geometric mixing rule
Per MPI rank memory allocation (min/avg/max) = 9.773 | 9.773 | 9.773 Mbytes
   Step          Temp          E_pair         E_mol          TotEng         Press     
        59   6157.5274      2.5157387      0.014128763    4.1217132      167.1145     
        60   6003.8993      2.5675947      0.0022113526   4.1219359      218.34192    
Loop time of 0.00255052 on 1 procs for 1 steps with 3 atoms

run 1 pre yes post no
PPPM initialization ...
  using 12-bit tables for long-range coulomb (src/kspace.cpp:342)
  G vector (1/distance) = 0.28934131
  grid = 18 18 18
  stencil order = 5
  estimated absolute RMS force accuracy = 7.7110449e-05
  estimated relative force accuracy = 5.3550243e-06
  using double precision KISS FFT
  3d grid and FFT values/proc = 15625 5832
Generated 0 of 21 mixed pair_coeff terms from geometric mixing rule
Per MPI rank memory allocation (min/avg/max) = 9.773 | 9.773 | 9.773 Mbytes
   Step          Temp          E_pair         E_mol          TotEng         Press     
        60   6003.8993      2.5675947      0.0022113526   4.1219359      218.34192    
        61   5655.8266      2.6166676      0.043579613    4.1223931      261.40888    
Loop time of 0.00113069 on 1 procs for 1 steps with 3 atoms

run 1 pre yes post no
PPPM initialization ...
  using 12-bit tables for long-range coulomb (src/kspace.cpp:342)
  G vector (1/distance) = 0.28934131
  grid = 18 18 18
  stencil order = 5
  estimated absolute RMS force accuracy = 7.7110449e-05
  estimated relative force accuracy = 5.3550243e-06
  using double precision KISS FFT
  3d grid and FFT values/proc = 15625 5832
Generated 0 of 21 mixed pair_coeff terms from geometric mixing rule
Per MPI rank memory allocation (min/avg/max) = 9.773 | 9.773 | 9.773 Mbytes
   Step          Temp          E_pair         E_mol          TotEng         Press     
        61   5655.8266      2.6166676      0.043579613    4.1223931      261.40888    
        62   5140.6057      2.6620323      0.1320708      4.123054       296.24447    
Loop time of 0.00110422 on 1 procs for 1 steps with 3 atoms

run 1 pre yes post no
PPPM initialization ...
  using 12-bit tables for long-range coulomb (src/kspace.cpp:342)
  G vector (1/distance) = 0.28934131
  grid = 18 18 18
  stencil order = 5
  estimated absolute RMS force accuracy = 7.7110449e-05
  estimated relative force accuracy = 5.3550243e-06
  using double precision KISS FFT
  3d grid and FFT values/proc = 15625 5832
Generated 0 of 21 mixed pair_coeff terms from geometric mixing rule
Per MPI rank memory allocation (min/avg/max) = 9.773 | 9.773 | 9.773 Mbytes
   Step          Temp          E_pair         E_mol          TotEng         Press     
        62   5140.6057      2.6620323      0.1320708      4.123054       296.24447    
        63   4497.9818      2.7027958      0.25825872     4.1238741      323.23907    
Loop time of 0.00105183 on 1 procs for 1 steps with 3 atoms

run 1 pre yes post no
PPPM initialization ...
  using 12-bit tables for long-range coulomb (src/kspace.cpp:342)
  G vector (1/distance) = 0.28934131
  grid = 18 18 18
  stencil order = 5
  estimated absolute RMS force accuracy = 7.7110449e-05
  estimated relative force accuracy = 5.3550243e-06
  using double precision KISS FFT
  3d grid and FFT values/proc = 15625 5832
Generated 0 of 21 mixed pair_coeff terms from geometric mixing rule
Per MPI rank memory allocation (min/avg/max) = 9.773 | 9.773 | 9.773 Mbytes
   Step          Temp          E_pair         E_mol          TotEng         Press     
        63   4497.9818      2.7027958      0.25825872     4.1238741      323.23907    
        64   3777.3906      2.738107       0.41015677     4.1247958      343.16682    
Loop time of 0.00125381 on 1 procs for 1 steps with 3 atoms

run 1 pre yes post no
PPPM initialization ...
  using 12-bit tables for long-range coulomb (src/kspace.cpp:342)
  G vector (1/distance) = 0.28934131
  grid = 18 18 18
  stencil order = 5
  estimated absolute RMS force accuracy = 7.7110449e-05
  estimated relative force accuracy = 5.3550243e-06
  using double precision KISS FFT
  3d grid and FFT values/proc = 15625 5832
Generated 0 of 21 mixed pair_coeff terms from geometric mixing rule
Per MPI rank memory allocation (min/avg/max) = 9.773 | 9.773 | 9.773 Mbytes
   Step          Temp          E_pair         E_mol          TotEng         Press     
        64   3777.3906      2.738107       0.41015677     4.1247958      343.16682    
        65   3034.5088      2.7671699      0.57410461     4.1257566      357.08346    
Loop time of 0.00114724 on 1 procs for 1 steps with 3 atoms

run 1 pre yes post no
PPPM initialization ...
  using 12-bit tables for long-range coulomb (src/kspace.cpp:342)
  G vector (1/distance) = 0.28934131
  grid = 18 18 18
  stencil order = 5
  estimated absolute RMS force accuracy = 7.7110449e-05
  estimated relative force accuracy = 5.3550243e-06
  using double precision KISS FFT
  3d grid and FFT values/proc = 15625 5832
Generated 0 of 21 mixed pair_coeff terms from geometric mixing rule
Per MPI rank memory allocation (min/avg/max) = 9.773 | 9.773 | 9.773 Mbytes
   Step          Temp          E_pair         E_mol          TotEng         Press     
        65   3034.5088      2.7671699      0.57410461     4.1257566      357.08346    
        66   2327.3428      2.789243       0.73577898     4.1266873      366.20686    
Loop time of 0.00137567 on 1 procs for 1 steps with 3 atoms

run 1 pre yes post no
PPPM initialization ...
  using 12-bit tables for long-range coulomb (src/kspace.cpp:342)
  G vector (1/distance) = 0.28934131
  grid = 18 18 18
  stencil order = 5
  estimated absolute RMS force accuracy = 7.7110449e-05
  estimated relative force accuracy = 5.3550243e-06
  using double precision KISS FFT
  3d grid and FFT values/proc = 15625 5832
Generated 0 of 21 mixed pair_coeff terms from geometric mixing rule
Per MPI rank memory allocation (min/avg/max) = 9.773 | 9.773 | 9.773 Mbytes
   Step          Temp          E_pair         E_mol          TotEng         Press     
        66   2327.3428      2.789243       0.73577898     4.1266873      366.20686    
        67   1712.1152      2.8036455      0.88126042     4.1275224      371.78968    
Loop time of 0.00117412 on 1 procs for 1 steps with 3 atoms

run 1 pre yes post no
PPPM initialization ...
  using 12-bit tables for long-range coulomb (src/kspace.cpp:342)
  G vector (1/distance) = 0.28934131
  grid = 18 18 18
  stencil order = 5
  estimated absolute RMS force accuracy = 7.7110449e-05
  estimated relative force accuracy = 5.3550243e-06
  using double precision KISS FFT
  3d grid and FFT values/proc = 15625 5832
Generated 0 of 21 mixed pair_coeff terms from geometric mixing rule
Per MPI rank memory allocation (min/avg/max) = 9.773 | 9.773 | 9.773 Mbytes
   Step          Temp          E_pair         E_mol          TotEng         Press     
        67   1712.1152      2.8036455      0.88126042     4.1275224      371.78968    
        68   1239.2283      2.8097526      0.99808264     4.1282009      374.99311    
Loop time of 0.00116323 on 1 procs for 1 steps with 3 atoms

run 1 pre yes post no
PPPM initialization ...
  using 12-bit tables for long-range coulomb (src/kspace.cpp:342)
  G vector (1/distance) = 0.28934131
  grid = 18 18 18
  stencil order = 5
  estimated absolute RMS force accuracy = 7.7110449e-05
  estimated relative force accuracy = 5.3550243e-06
  using double precision KISS FFT
  3d grid and FFT values/proc = 15625 5832
Generated 0 of 21 mixed pair_coeff terms from geometric mixing rule
Per MPI rank memory allocation (min/avg/max) = 9.773 | 9.773 | 9.773 Mbytes
   Step          Temp          E_pair         E_mol          TotEng         Press     
        68   1239.2283      2.8097526      0.99808264     4.1282009      374.99311    
        69   949.58843      2.8069936      1.0761897      4.1286712      376.77136    
Loop time of 0.00132293 on 1 procs for 1 steps with 3 atoms

run 1 pre yes post no
PPPM initialization ...
  using 12-bit tables for long-range coulomb (src/kspace.cpp:342)
  G vector (1/distance) = 0.28934131
  grid = 18 18 18
  stencil order = 5
  estimated absolute RMS force accuracy = 7.7110449e-05
  estimated relative force accuracy = 5.3550243e-06
  using double precision KISS FFT
  3d grid and FFT values/proc = 15625 5832
Generated 0 of 21 mixed pair_coeff terms from geometric mixing rule
Per MPI rank memory allocation (min/avg/max) = 9.773 | 9.773 | 9.773 Mbytes
   Step          Temp          E_pair         E_mol          TotEng         Press     
        69   949.58843      2.8069936      1.0761897      4.1286712      376.77136    
        70   871.55807      2.7948516      1.1087302      4.1288973      377.77627    
Loop time of 0.00126445 on 1 procs for 1 steps with 3 atoms

run 1 pre yes post no
PPPM initialization ...
  using 12-bit tables for long-range coulomb (src/kspace.cpp:342)
  G vector (1/distance) = 0.28934131
  grid = 18 18 18
  stencil order = 5
  estimated absolute RMS force accuracy = 7.7110449e-05
  estimated relative force accuracy = 5.3550243e-06
  using double precision KISS FFT
  3d grid and FFT values/proc = 15625 5832
Generated 0 of 21 mixed pair_coeff terms from geometric mixing rule
Per MPI rank memory allocation (min/avg/max) = 9.773 | 9.773 | 9.773 Mbytes
   Step          Temp          E_pair         E_mol          TotEng         Press     
        70   871.55807      2.7948516      1.1087302      4.1288973      377.77627    
        71   1018.7744      2.7728593      1.0926263      4.1288594      378.28923    
Loop time of 0.00110294 on 1 procs for 1 steps with 3 atoms

run 1 pre yes post no
PPPM initialization ...
  using 12-bit tables for long-range coulomb (src/kspace.cpp:342)
  G vector (1/distance) = 0.28934131
  grid = 18 18 18
  stencil order = 5
  estimated absolute RMS force accuracy = 7.7110449e-05
  estimated relative force accuracy = 5.3550243e-06
  using double precision KISS FFT
  3d grid and FFT values/proc = 15625 5832
Generated 0 of 21 mixed pair_coeff terms from geometric mixing rule
Per MPI rank memory allocation (min/avg/max) = 9.773 | 9.773 | 9.773 Mbytes
   Step          Temp          E_pair         E_mol          TotEng         Press     
        71   1018.7744      2.7728593      1.0926263      4.1288594      378.28923    
        72   1389.0126      2.7406007      1.0288685      4.1285572      378.18694    
Loop time of 0.0016428 on 1 procs for 1 steps with 3 atoms

run 1 pre yes post no
PPPM initialization ...
  using 12-bit tables for long-range coulomb (src/kspace.cpp:342)
  G vector (1/distance) = 0.28934131
  grid = 18 18 18
  stencil order = 5
  estimated absolute RMS force accuracy = 7.7110449e-05
  estimated relative force accuracy = 5.3550243e-06
  using double precision KISS FFT
  3d grid and FFT values/proc = 15625 5832
Generated 0 of 21 mixed pair_coeff terms from geometric mixing rule
Per MPI rank memory allocation (min/avg/max) = 9.773 | 9.773 | 9.773 Mbytes
   Step          Temp          E_pair         E_mol          TotEng         Press     
        72   1389.0126      2.7406007      1.0288685      4.1285572      378.18694    
        73   1964.2003      2.6977161      0.92250904     4.1280108      376.94411    
Loop time of 0.00239724 on 1 procs for 1 steps with 3 atoms

run 1 pre yes post no
PPPM initialization ...
  using 12-bit tables for long-range coulomb (src/kspace.cpp:342)
  G vector (1/distance) = 0.28934131
  grid = 18 18 18
  stencil order = 5
  estimated absolute RMS force accuracy = 7.7110449e-05
  estimated relative force accuracy = 5.3550243e-06
  using double precision KISS FFT
  3d grid and FFT values/proc = 15625 5832
Generated 0 of 21 mixed pair_coeff terms from geometric mixing rule
Per MPI rank memory allocation (min/avg/max) = 9.773 | 9.773 | 9.773 Mbytes
   Step          Temp          E_pair         E_mol          TotEng         Press     
        73   1964.2003      2.6977161      0.92250904     4.1280108      376.94411    
        74   2711.5958      2.6439057      0.78234821     4.1272564      373.6736     
Loop time of 0.00221583 on 1 procs for 1 steps with 3 atoms

run 1 pre yes post no
PPPM initialization ...
  using 12-bit tables for long-range coulomb (src/kspace.cpp:342)
  G vector (1/distance) = 0.28934131
  grid = 18 18 18
  stencil order = 5
  estimated absolute RMS force accuracy = 7.7110449e-05
  estimated relative force accuracy = 5.3550243e-06
  using double precision KISS FFT
  3d grid and FFT values/proc = 15625 5832
Generated 0 of 21 mixed pair_coeff terms from geometric mixing rule
Per MPI rank memory allocation (min/avg/max) = 9.773 | 9.773 | 9.773 Mbytes
   Step          Temp          E_pair         E_mol          TotEng         Press     
        74   2711.5958      2.6439057      0.78234821     4.1272564      373.6736     
        75   3586.0463      2.5789464      0.62033493     4.126347       367.20178    
Loop time of 0.00146666 on 1 procs for 1 steps with 3 atoms

run 1 pre yes post no
PPPM initialization ...
  using 12-bit tables for long-range coulomb (src/kspace.cpp:342)
  G vector (1/distance) = 0.28934131
  grid = 18 18 18
  stencil order = 5
  estimated absolute RMS force accuracy = 7.7110449e-05
  estimated relative force accuracy = 5.3550243e-06
  using double precision KISS FFT
  3d grid and FFT values/proc = 15625 5832
Generated 0 of 21 mixed pair_coeff terms from geometric mixing rule
Per MPI rank memory allocation (min/avg/max) = 9.773 | 9.773 | 9.773 Mbytes
   Step          Temp          E_pair         E_mol          TotEng         Press     
        75   3586.0463      2.5789464      0.62033493     4.126347       367.20178    
        76   4533.1482      2.5027097      0.45072582     4.1253463      356.17323    
Loop time of 0.00110383 on 1 procs for 1 steps with 3 atoms

run 1 pre yes post no
PPPM initialization ...
  using 12-bit tables for long-range coulomb (src/kspace.cpp:342)
  G vector (1/distance) = 0.28934131
  grid = 18 18 18
  stencil order = 5
  estimated absolute RMS force accuracy = 7.7110449e-05
  estimated relative force accuracy = 5.3550243e-06
  using double precision KISS FFT
  3d grid and FFT values/proc = 15625 5832
Generated 0 of 21 mixed pair_coeff terms from geometric mixing rule
Per MPI rank memory allocation (min/avg/max) = 9.773 | 9.773 | 9.773 Mbytes
   Step          Temp          E_pair         E_mol          TotEng         Press     
        76   4533.1482      2.5027097      0.45072582     4.1253463      356.17323    
        77   5493.0592      2.4151892      0.28906679     4.1243232      339.17738    
Loop time of 0.00306357 on 1 procs for 1 steps with 3 atoms

run 1 pre yes post no
PPPM initialization ...
  using 12-bit tables for long-range coulomb (src/kspace.cpp:342)
  G vector (1/distance) = 0.28934131
  grid = 18 18 18
  stencil order = 5
  estimated absolute RMS force accuracy = 7.7110449e-05
  estimated relative force accuracy = 5.3550243e-06
  using double precision KISS FFT
  3d grid and FFT values/proc = 15625 5832
Generated 0 of 21 mixed pair_coeff terms from geometric mixing rule
Per MPI rank memory allocation (min/avg/max) = 9.773 | 9.773 | 9.773 Mbytes
   Step          Temp          E_pair         E_mol          TotEng         Press     
        77   5493.0592      2.4151892      0.28906679     4.1243232      339.17738    
        78   6404.658       2.3165396      0.15107364     4.1233473      314.8879     
Loop time of 0.00310147 on 1 procs for 1 steps with 3 atoms

run 1 pre yes post no
PPPM initialization ...
  using 12-bit tables for long-range coulomb (src/kspace.cpp:342)
  G vector (1/distance) = 0.28934131
  grid = 18 18 18
  stencil order = 5
  estimated absolute RMS force accuracy = 7.7110449e-05
  estimated relative force accuracy = 5.3550243e-06
  using double precision KISS FFT
  3d grid and FFT values/proc = 15625 5832
Generated 0 of 21 mixed pair_coeff terms from geometric mixing rule
Per MPI rank memory allocation (min/avg/max) = 9.773 | 9.773 | 9.773 Mbytes
   Step          Temp          E_pair         E_mol          TotEng         Press     
        78   6404.658       2.3165396      0.15107364     4.1233473      314.8879     
        79   7209.7252      2.2071276      0.051493853    4.1224817      282.20494    
Loop time of 0.00266856 on 1 procs for 1 steps with 3 atoms

run 1 pre yes post no
PPPM initialization ...
  using 12-bit tables for long-range coulomb (src/kspace.cpp:342)
  G vector (1/distance) = 0.28934131
  grid = 18 18 18
  stencil order = 5
  estimated absolute RMS force accuracy = 7.7110449e-05
  estimated relative force accuracy = 5.3550243e-06
  using double precision KISS FFT
  3d grid and FFT values/proc = 15625 5832
Generated 0 of 21 mixed pair_coeff terms from geometric mixing rule
Per MPI rank memory allocation (min/avg/max) = 9.773 | 9.773 | 9.773 Mbytes
   Step          Temp          E_pair         E_mol          TotEng         Press     
        79   7209.7252      2.2071276      0.051493853    4.1224817      282.20494    
        80   7856.8272      2.0876007      0.0030303571   4.1217804      240.39114    
Loop time of 0.0036261 on 1 procs for 1 steps with 3 atoms

run 1 pre yes post no
PPPM initialization ...
  using 12-bit tables for long-range coulomb (src/kspace.cpp:342)
  G vector (1/distance) = 0.28934131
  grid = 18 18 18
  stencil order = 5
  estimated absolute RMS force accuracy = 7.7110449e-05
  estimated relative force accuracy = 5.3550243e-06
  using double precision KISS FFT
  3d grid and FFT values/proc = 15625 5832
Generated 0 of 21 mixed pair_coeff terms from geometric mixing rule
Per MPI rank memory allocation (min/avg/max) = 9.773 | 9.773 | 9.773 Mbytes
   Step          Temp          E_pair         E_mol          TotEng         Press     
        80   7856.8272      2.0876007      0.0030303571   4.1217804      240.39114    
        81   8304.6144      1.9589725      0.015399702    4.1212835      189.19269    
Loop time of 0.00247145 on 1 procs for 1 steps with 3 atoms

run 1 pre yes post no
PPPM initialization ...
  using 12-bit tables for long-range coulomb (src/kspace.cpp:342)
  G vector (1/distance) = 0.28934131
  grid = 18 18 18
  stencil order = 5
  estimated absolute RMS force accuracy = 7.7110449e-05
  estimated relative force accuracy = 5.3550243e-06
  using double precision KISS FFT
  3d grid and FFT values/proc = 15625 5832
Generated 0 of 21 mixed pair_coeff terms from geometric mixing rule
Per MPI rank memory allocation (min/avg/max) = 9.773 | 9.773 | 9.773 Mbytes
   Step          Temp          E_pair         E_mol          TotEng         Press     
        81   8304.6144      1.9589725      0.015399702    4.1212835      189.19269    
        82   8524.3634      1.8227285      0.094584272    4.1210337      128.93955    
Loop time of 0.00286789 on 1 procs for 1 steps with 3 atoms

run 1 pre yes post no
PPPM initialization ...
  using 12-bit tables for long-range coulomb (src/kspace.cpp:342)
  G vector (1/distance) = 0.28934131
  grid = 18 18 18
  stencil order = 5
  estimated absolute RMS force accuracy = 7.7110449e-05
  estimated relative force accuracy = 5.3550243e-06
  using double precision KISS FFT
  3d grid and FFT values/proc = 15625 5832
Generated 0 of 21 mixed pair_coeff terms from geometric mixing rule
Per MPI rank memory allocation (min/avg/max) = 9.773 | 9.773 | 9.773 Mbytes
   Step          Temp          E_pair         E_mol          TotEng         Press     
        82   8524.3634      1.8227285      0.094584272    4.1210337      128.93955    
        83   8502.2547      1.6809414      0.24232184     4.1212686      60.628585    
Loop time of 0.00298797 on 1 procs for 1 steps with 3 atoms

run 1 pre yes post no
PPPM initialization ...
  using 12-bit tables for long-range coulomb (src/kspace.cpp:342)
  G vector (1/distance) = 0.28934131
  grid = 18 18 18
  stencil order = 5
  estimated absolute RMS force accuracy = 7.7110449e-05
  estimated relative force accuracy = 5.3550243e-06
  using double precision KISS FFT
  3d grid and FFT values/proc = 15625 5832
Generated 0 of 21 mixed pair_coeff terms from geometric mixing rule
Per MPI rank memory allocation (min/avg/max) = 9.773 | 9.773 | 9.773 Mbytes
   Step          Temp          E_pair         E_mol          TotEng         Press     
        83   8502.2547      1.6809414      0.24232184     4.1212686      60.628585    
        84   8245.2038      1.5363858      0.45587779     4.1238161     -13.956359    
Loop time of 0.00472225 on 1 procs for 1 steps with 3 atoms

run 1 pre yes post no
PPPM initialization ...
  using 12-bit tables for long-range coulomb (src/kspace.cpp:342)
  G vector (1/distance) = 0.28934131
  grid = 18 18 18
  stencil order = 5
  estimated absolute RMS force accuracy = 7.7110449e-05
  estimated relative force accuracy = 5.3550243e-06
  using double precision KISS FFT
  3d grid and FFT values/proc = 15625 5832
Generated 0 of 21 mixed pair_coeff terms from geometric mixing rule
Per MPI rank memory allocation (min/avg/max) = 9.773 | 9.773 | 9.773 Mbytes
   Step          Temp          E_pair         E_mol          TotEng         Press     
        84   8245.2038      1.5363858      0.45587779     4.1238161     -13.956359    
        85   7800.7838      1.3925246      0.72830207     4.1374876     -91.95857     
Loop time of 0.00386075 on 1 procs for 1 steps with 3 atoms

run 1 pre yes post no
PPPM initialization ...
  using 12-bit tables for long-range coulomb (src/kspace.cpp:342)
  G vector (1/distance) = 0.28934131
  grid = 18 18 18
  stencil order = 5
  estimated absolute RMS force accuracy = 7.7110449e-05
  estimated relative force accuracy = 5.3550243e-06
  using double precision KISS FFT
  3d grid and FFT values/proc = 15625 5832
Generated 0 of 21 mixed pair_coeff terms from geometric mixing rule
Per MPI rank memory allocation (min/avg/max) = 9.773 | 9.773 | 9.773 Mbytes
   Step          Temp          E_pair         E_mol          TotEng         Press     
        85   7800.7838      1.3925246      0.72830207     4.1374876     -91.95857     
        86   7292.053       1.2531367      1.0500248      4.1883052     -169.12007    
Loop time of 0.00500231 on 1 procs for 1 steps with 3 atoms

run 1 pre yes post no
PPPM initialization ...
  using 12-bit tables for long-range coulomb (src/kspace.cpp:342)
  G vector (1/distance) = 0.28934131
  grid = 18 18 18
  stencil order = 5
  estimated absolute RMS force accuracy = 7.7110449e-05
  estimated relative force accuracy = 5.3550243e-06
  using double precision KISS FFT
  3d grid and FFT values/proc = 15625 5832
Generated 0 of 21 mixed pair_coeff terms from geometric mixing rule
Per MPI rank memory allocation (min/avg/max) = 9.773 | 9.773 | 9.773 Mbytes
   Step          Temp          E_pair         E_mol          TotEng         Press     
        86   7292.053       1.2531367      1.0500248      4.1883052     -169.12007    
        87   6911.8115      1.1213901      1.413272       4.3215056     -240.4435     
Loop time of 0.00388559 on 1 procs for 1 steps with 3 atoms

run 1 pre yes post no
PPPM initialization ...
  using 12-bit tables for long-range coulomb (src/kspace.cpp:342)
  G vector (1/distance) = 0.28934131
  grid = 18 18 18
  stencil order = 5
  estimated absolute RMS force accuracy = 7.7110449e-05
  estimated relative force accuracy = 5.3550243e-06
  using double precision KISS FFT
  3d grid and FFT values/proc = 15625 5832
Generated 0 of 21 mixed pair_coeff terms from geometric mixing rule
Per MPI rank memory allocation (min/avg/max) = 9.773 | 9.773 | 9.773 Mbytes
   Step          Temp          E_pair         E_mol          TotEng         Press     
        87   6911.8115      1.1213901      1.413272       4.3215056     -240.4435     
        88   6789.1939      0.99952379     1.8179437      4.5726119     -302.75305    
Loop time of 0.00292546 on 1 procs for 1 steps with 3 atoms

run 1 pre yes post no
PPPM initialization ...
  using 12-bit tables for long-range coulomb (src/kspace.cpp:342)
  G vector (1/distance) = 0.28934131
  grid = 18 18 18
  stencil order = 5
  estimated absolute RMS force accuracy = 7.7110449e-05
  estimated relative force accuracy = 5.3550243e-06
  using double precision KISS FFT
  3d grid and FFT values/proc = 15625 5832
Generated 0 of 21 mixed pair_coeff terms from geometric mixing rule
Per MPI rank memory allocation (min/avg/max) = 9.773 | 9.773 | 9.773 Mbytes
   Step          Temp          E_pair         E_mol          TotEng         Press     
        88   6789.1939      0.99952379     1.8179437      4.5726119     -302.75305    
        89   6855.0833      0.8915523      2.270205       4.9339355     -355.713      
Loop time of 0.00252291 on 1 procs for 1 steps with 3 atoms

run 0 pre yes post no
PPPM initialization ...
  using 12-bit tables for long-range coulomb (src/kspace.cpp:342)
  G vector (1/distance) = 0.28934131
  grid = 18 18 18
  stencil order = 5
  estimated absolute RMS force accuracy = 7.7110449e-05
  estimated relative force accuracy = 5.3550243e-06
  using double precision KISS FFT
  3d grid and FFT values/proc = 15625 5832
Generated 0 of 21 mixed pair_coeff terms from geometric mixing rule
Per MPI rank memory allocation (min/avg/max) = 9.773 | 9.773 | 9.773 Mbytes
   Step          Temp          E_pair         E_mol          TotEng         Press     
        89   6855.0833      0.8915523      2.270205       4.9339355     -355.713      
Loop time of 7.22e-07 on 1 procs for 0 steps with 3 atoms

run 0 pre yes post no
PPPM initialization ...
  using 12-bit tables for long-range coulomb (src/kspace.cpp:342)
  G vector (1/distance) = 0.28934131
  grid = 18 18 18
  stencil order = 5
  estimated absolute RMS force accuracy = 7.7110449e-05
  estimated relative force accuracy = 5.3550243e-06
  using double precision KISS FFT
  3d grid and FFT values/proc = 15625 5832
Generated 0 of 21 mixed pair_coeff terms from geometric mixing rule
Per MPI rank memory allocation (min/avg/max) = 9.773 | 9.773 | 9.773 Mbytes
   Step          Temp          E_pair         E_mol          TotEng         Press     
        89   6855.0833      0.8915523      2.270205       4.9339355     -355.713      
Loop time of 4.21e-07 on 1 procs for 0 steps with 3 atoms

clear
OMP_NUM_THREADS environment is not set. Defaulting to 1 thread. (src/comm.cpp:98)
  using 1 OpenMP thread(s) per MPI task
units metal
atom_style full
boundary p p p
read_data /tmp/mustard.1db41283f1a74d1b97c38b9120794fbd
Reading data file ...
  triclinic box = (0 0 0) to (25.319 25.319 25.319) with tilt (0 0 0)
  1 by 1 by 1 MPI processor grid
  reading atoms ...
  3 atoms
  reading velocities ...
  3 velocities
  scanning bonds ...
  1 = max bonds/atom
  reading bonds ...
  1 bonds
Finding 1-2 1-3 1-4 neighbors ...
  special bond factors lj:    0        0        0       
  special bond factors coul:  0        0        0       
     1 = max # of 1-2 neighbors
     0 = max # of 1-3 neighbors
     0 = max # of 1-4 neighbors
     1 = max # of special neighbors
  special bonds CPU = 0.000 seconds
  read_data CPU = 0.001 seconds

change_box all triclinic
Changing box ...
  triclinic box = (0 0 0) to (25.319 25.319 25.319) with tilt (0 0 0)
include ff.lmp
##############################################################################################
#### Atoms' types - mass - charge
##############################################################################################
#@ 7   atom types

variable Ba  equal 1
variable Zr  equal 2
variable  Y  equal 3
variable O1  equal 4
variable O2  equal 5
variable O3  equal 6
variable H1  equal 7

##############################################################################################
#### Atoms' masses
##############################################################################################

mass  ${Ba}   137.327
mass  1   137.327
mass  ${Zr}    91.224
mass  2    91.224
mass  ${Y}     88.910
mass  3     88.910
mass  ${O1}    100000
mass  4    100000
# mass  ${O1}    15.996
mass  ${O2}    100000
mass  5    100000
# mass  ${O2}    15.996
mass  ${O3}    15.996
mass  6    15.996
mass  ${H1}     1.008
mass  7     1.008

##############################################################################################
#### Atoms' charges
##############################################################################################

set type ${Ba}  charge     2.000000
set type 1  charge     2.000000
Setting atom values ...
  0 settings made for charge
set type ${Zr}  charge     4.000000
set type 2  charge     4.000000
Setting atom values ...
  0 settings made for charge
set type ${Y}   charge     3.000000
set type 3   charge     3.000000
Setting atom values ...
  0 settings made for charge
set type ${O1}  charge    -1.308698
set type 4  charge    -1.308698
Setting atom values ...
  1 settings made for charge
set type ${O2}  charge    -2.000000
set type 5  charge    -2.000000
Setting atom values ...
  1 settings made for charge
set type ${O3}  charge    -2.000000
set type 6  charge    -2.000000
Setting atom values ...
  0 settings made for charge
set type ${H1}  charge     0.308698
set type 7  charge     0.308698
Setting atom values ...
  1 settings made for charge

##############################################################################################
#### Covalent bonds parameters
##############################################################################################
#@  1   bond types

bond_style harmonic
#@ O1 - H1
# bond_coeff   1      11.504000      0.985357
bond_coeff   1      23.008000      0.985357

##############################################################################################
# Pair potentials
##############################################################################################

variable rmin  equal  8.
variable rmax  equal 10.

pair_style hybrid/overlay buck/mdf ${rmin} ${rmax} lennard/mdf ${rmin} ${rmax} coul/long ${rmax}
pair_style hybrid/overlay buck/mdf 8 ${rmax} lennard/mdf ${rmin} ${rmax} coul/long ${rmax}
pair_style hybrid/overlay buck/mdf 8 10 lennard/mdf ${rmin} ${rmax} coul/long ${rmax}
pair_style hybrid/overlay buck/mdf 8 10 lennard/mdf 8 ${rmax} coul/long ${rmax}
pair_style hybrid/overlay buck/mdf 8 10 lennard/mdf 8 10 coul/long ${rmax}
pair_style hybrid/overlay buck/mdf 8 10 lennard/mdf 8 10 coul/long 10

##############################################################################################
# Buckingham interaction potentials
pair_coeff  ${Ba}  ${O1}  buck/mdf   688.21662   0.392014   0.000
pair_coeff  1  ${O1}  buck/mdf   688.21662   0.392014   0.000
pair_coeff  1  4  buck/mdf   688.21662   0.392014   0.000
pair_coeff  ${Ba}  ${O2}  buck/mdf   972.19945   0.392014   0.000
pair_coeff  1  ${O2}  buck/mdf   972.19945   0.392014   0.000
pair_coeff  1  5  buck/mdf   972.19945   0.392014   0.000
pair_coeff  ${Ba}  ${O3}  buck/mdf   972.19945   0.392014   0.000
pair_coeff  1  ${O3}  buck/mdf   972.19945   0.392014   0.000
pair_coeff  1  6  buck/mdf   972.19945   0.392014   0.000

pair_coeff  ${Y}   ${O1}  buck/mdf   2972.3808   0.267317   0.000
pair_coeff  3   ${O1}  buck/mdf   2972.3808   0.267317   0.000
pair_coeff  3   4  buck/mdf   2972.3808   0.267317   0.000
pair_coeff  ${Y}   ${O2}  buck/mdf   4121.8373   0.280386   0.000
pair_coeff  3   ${O2}  buck/mdf   4121.8373   0.280386   0.000
pair_coeff  3   5  buck/mdf   4121.8373   0.280386   0.000
pair_coeff  ${Y}   ${O3}  buck/mdf   4121.8373   0.280386   0.000
pair_coeff  3   ${O3}  buck/mdf   4121.8373   0.280386   0.000
pair_coeff  3   6  buck/mdf   4121.8373   0.280386   0.000

pair_coeff  ${Zr}  ${O1}  buck/mdf   2195.8712   0.298760   0.000
pair_coeff  2  ${O1}  buck/mdf   2195.8712   0.298760   0.000
pair_coeff  2  4  buck/mdf   2195.8712   0.298760   0.000
pair_coeff  ${Zr}  ${O2}  buck/mdf   3250.8545   0.298760   0.000
pair_coeff  2  ${O2}  buck/mdf   3250.8545   0.298760   0.000
pair_coeff  2  5  buck/mdf   3250.8545   0.298760   0.000
pair_coeff  ${Zr}  ${O3}  buck/mdf   3250.8545   0.298760   0.000
pair_coeff  2  ${O3}  buck/mdf   3250.8545   0.298760   0.000
pair_coeff  2  6  buck/mdf   3250.8545   0.298760   0.000

pair_coeff  ${O1}  ${O1}  buck/mdf   22764.000   0.149000   0.000
pair_coeff  4  ${O1}  buck/mdf   22764.000   0.149000   0.000
pair_coeff  4  4  buck/mdf   22764.000   0.149000   0.000
pair_coeff  ${O1}  ${O2}  buck/mdf   22764.000   0.149000   0.000
pair_coeff  4  ${O2}  buck/mdf   22764.000   0.149000   0.000
pair_coeff  4  5  buck/mdf   22764.000   0.149000   0.000
pair_coeff  ${O1}  ${O3}  buck/mdf   22764.000   0.149000   0.000
pair_coeff  4  ${O3}  buck/mdf   22764.000   0.149000   0.000
pair_coeff  4  6  buck/mdf   22764.000   0.149000   0.000

pair_coeff  ${O2}  ${O2}  buck/mdf   22764.000   0.149000   0.000
pair_coeff  5  ${O2}  buck/mdf   22764.000   0.149000   0.000
pair_coeff  5  5  buck/mdf   22764.000   0.149000   0.000
pair_coeff  ${O2}  ${O3}  buck/mdf   22764.000   0.149000   0.000
pair_coeff  5  ${O3}  buck/mdf   22764.000   0.149000   0.000
pair_coeff  5  6  buck/mdf   22764.000   0.149000   0.000

pair_coeff  ${O3}  ${O3}  buck/mdf   22764.000   0.149000   0.000
pair_coeff  6  ${O3}  buck/mdf   22764.000   0.149000   0.000
pair_coeff  6  6  buck/mdf   22764.000   0.149000   0.000

##############################################################################################
# 12-6 Lennard-Jones potentials
pair_coeff  ${O1}  ${H1}  lennard/mdf    6.391   0.000
pair_coeff  4  ${H1}  lennard/mdf    6.391   0.000
pair_coeff  4  7  lennard/mdf    6.391   0.000
pair_coeff  ${O2}  ${H1}  lennard/mdf    6.391   0.000
pair_coeff  5  ${H1}  lennard/mdf    6.391   0.000
pair_coeff  5  7  lennard/mdf    6.391   0.000
pair_coeff  ${O3}  ${H1}  lennard/mdf    7.800   0.000
pair_coeff  6  ${H1}  lennard/mdf    7.800   0.000
pair_coeff  6  7  lennard/mdf    7.800   0.000

##############################################################################################
# Coulombic interaction
pair_coeff      *      *  coul/long

#########################################################################################################
# Parameters for reciprocal space electrostatics
#########################################################################################################

kspace_style pppm 1.0e-5
kspace_modify fftbench no
fix md all nve
timestep 0.0002

change_box all x final 0.0 25.319 y final 0.0 25.319 z final 0.0 25.319 xy final 0.0 xz final 0.0 yz final 0.0
Changing box ...
  triclinic box = (0 0 0) to (25.319 25.319 25.319) with tilt (0 0 0)
  triclinic box = (0 0 0) to (25.319 25.319 25.319) with tilt (0 0 0)
  triclinic box = (0 0 0) to (25.319 25.319 25.319) with tilt (0 0 0)
  triclinic box = (0 0 0) to (25.319 25.319 25.319) with tilt (0 0 0)
  triclinic box = (0 0 0) to (25.319 25.319 25.319) with tilt (0 0 0)
  triclinic box = (0 0 0) to (25.319 25.319 25.319) with tilt (0 0 0)
fix ux all store/state 1 xu yu zu
fix ext all external pf/callback 1 1
fix_modify ext energy no
fix_modify ext virial no
compute get_pe all pe

run 0 pre yes post no
PPPM initialization ...
WARNING: System is not charge neutral, net charge = -3 (src/kspace.cpp:327)
  using 12-bit tables for long-range coulomb (src/kspace.cpp:342)
  G vector (1/distance) = 0.28934131
  grid = 18 18 18
  stencil order = 5
  estimated absolute RMS force accuracy = 7.7110449e-05
  estimated relative force accuracy = 5.3550243e-06
  using double precision KISS FFT
  3d grid and FFT values/proc = 15625 5832
Generated 0 of 21 mixed pair_coeff terms from geometric mixing rule
Neighbor list info ...
  update: every = 1 steps, delay = 0 steps, check = yes
  max neighbors/atom: 2000, page size: 100000
  master list distance cutoff = 12
  ghost atom cutoff = 12
  binsize = 6, bins = 5 5 5
  3 neighbor lists, perpetual/occasional/extra = 3 0 0
  (1) pair buck/mdf, perpetual, skip from (3)
      attributes: half, newton on
      pair build: skip
      stencil: none
      bin: none
  (2) pair lennard/mdf, perpetual, skip from (3)
      attributes: half, newton on
      pair build: skip
      stencil: none
      bin: none
  (3) pair coul/long, perpetual
      attributes: half, newton on
      pair build: half/bin/newton/tri
      stencil: half/bin/3d/tri
      bin: standard
Per MPI rank memory allocation (min/avg/max) = 9.773 | 9.773 | 9.773 Mbytes
   Step          Temp          E_pair         E_mol          TotEng         Press     
         0   6799.3403      0.89499849     2.25186        4.9046259     -354.62322    
Loop time of 1.042e-06 on 1 procs for 0 steps with 3 atoms

run 0 pre yes post no
PPPM initialization ...
  using 12-bit tables for long-range coulomb (src/kspace.cpp:342)
  G vector (1/distance) = 0.28934131
  grid = 18 18 18
  stencil order = 5
  estimated absolute RMS force accuracy = 7.7110449e-05
  estimated relative force accuracy = 5.3550243e-06
  using double precision KISS FFT
  3d grid and FFT values/proc = 15625 5832
Generated 0 of 21 mixed pair_coeff terms from geometric mixing rule
Per MPI rank memory allocation (min/avg/max) = 9.773 | 9.773 | 9.773 Mbytes
   Step          Temp          E_pair         E_mol          TotEng         Press     
         0   6799.3403      0.89499849     2.25186        4.9046259     -354.62322    
Loop time of 4.8e-07 on 1 procs for 0 steps with 3 atoms

run 1 pre yes post no
PPPM initialization ...
  using 12-bit tables for long-range coulomb (src/kspace.cpp:342)
  G vector (1/distance) = 0.28934131
  grid = 18 18 18
  stencil order = 5
  estimated absolute RMS force accuracy = 7.7110449e-05
  estimated relative force accuracy = 5.3550243e-06
  using double precision KISS FFT
  3d grid and FFT values/proc = 15625 5832
Generated 0 of 21 mixed pair_coeff terms from geometric mixing rule
Per MPI rank memory allocation (min/avg/max) = 9.773 | 9.773 | 9.773 Mbytes
   Step          Temp          E_pair         E_mol          TotEng         Press     
         0   6855.0833      0.89499849     2.25186        4.9190366     -353.67488    
         1   7008.2567      0.99296757     1.7565166      4.5612607     -286.69873    
Loop time of 0.00375416 on 1 procs for 1 steps with 3 atoms

run 1 pre yes post no
PPPM initialization ...
  using 12-bit tables for long-range coulomb (src/kspace.cpp:342)
  G vector (1/distance) = 0.28934131
  grid = 18 18 18
  stencil order = 5
  estimated absolute RMS force accuracy = 7.7110449e-05
  estimated relative force accuracy = 5.3550243e-06
  using double precision KISS FFT
  3d grid and FFT values/proc = 15625 5832
Generated 0 of 21 mixed pair_coeff terms from geometric mixing rule
Per MPI rank memory allocation (min/avg/max) = 9.773 | 9.773 | 9.773 Mbytes
   Step          Temp          E_pair         E_mol          TotEng         Press     
         1   7008.2567      0.99296757     1.7565166      4.5612607     -286.69873    
         2   7317.2535      1.1035274      1.3189529      4.3141388     -212.94078    
Loop time of 0.00304297 on 1 procs for 1 steps with 3 atoms

run 1 pre yes post no
PPPM initialization ...
  using 12-bit tables for long-range coulomb (src/kspace.cpp:342)
  G vector (1/distance) = 0.28934131
  grid = 18 18 18
  stencil order = 5
  estimated absolute RMS force accuracy = 7.7110449e-05
  estimated relative force accuracy = 5.3550243e-06
  using double precision KISS FFT
  3d grid and FFT values/proc = 15625 5832
Generated 0 of 21 mixed pair_coeff terms from geometric mixing rule
Per MPI rank memory allocation (min/avg/max) = 9.773 | 9.773 | 9.773 Mbytes
   Step          Temp          E_pair         E_mol          TotEng         Press     
         2   7317.2535      1.1035274      1.3189529      4.3141388     -212.94078    
         3   7832.1921      1.2241373      0.935024       4.1839418     -132.63679    
Loop time of 0.00284209 on 1 procs for 1 steps with 3 atoms

run 1 pre yes post no
PPPM initialization ...
  using 12-bit tables for long-range coulomb (src/kspace.cpp:342)
  G vector (1/distance) = 0.28934131
  grid = 18 18 18
  stencil order = 5
  estimated absolute RMS force accuracy = 7.7110449e-05
  estimated relative force accuracy = 5.3550243e-06
  using double precision KISS FFT
  3d grid and FFT values/proc = 15625 5832
Generated 0 of 21 mixed pair_coeff terms from geometric mixing rule
Per MPI rank memory allocation (min/avg/max) = 9.773 | 9.773 | 9.773 Mbytes
   Step          Temp          E_pair         E_mol          TotEng         Press     
         3   7832.1921      1.2241373      0.935024       4.1839418     -132.63679    
         4   8414.7425      1.3532345      0.6064597      4.1350758     -48.973337    
Loop time of 0.0027962 on 1 procs for 1 steps with 3 atoms

run 1 pre yes post no
PPPM initialization ...
  using 12-bit tables for long-range coulomb (src/kspace.cpp:342)
  G vector (1/distance) = 0.28934131
  grid = 18 18 18
  stencil order = 5
  estimated absolute RMS force accuracy = 7.7110449e-05
  estimated relative force accuracy = 5.3550243e-06
  using double precision KISS FFT
  3d grid and FFT values/proc = 15625 5832
Generated 0 of 21 mixed pair_coeff terms from geometric mixing rule
Per MPI rank memory allocation (min/avg/max) = 9.773 | 9.773 | 9.773 Mbytes
   Step          Temp          E_pair         E_mol          TotEng         Press     
         4   8414.7425      1.3532345      0.6064597      4.1350758     -48.973337    
         5   8868.8866      1.4878471      0.34173705     4.1223713      33.041584    
Loop time of 0.00299358 on 1 procs for 1 steps with 3 atoms

run 1 pre yes post no
PPPM initialization ...
  using 12-bit tables for long-range coulomb (src/kspace.cpp:342)
  G vector (1/distance) = 0.28934131
  grid = 18 18 18
  stencil order = 5
  estimated absolute RMS force accuracy = 7.7110449e-05
  estimated relative force accuracy = 5.3550243e-06
  using double precision KISS FFT
  3d grid and FFT values/proc = 15625 5832
Generated 0 of 21 mixed pair_coeff terms from geometric mixing rule
Per MPI rank memory allocation (min/avg/max) = 9.773 | 9.773 | 9.773 Mbytes
   Step          Temp          E_pair         E_mol          TotEng         Press     
         5   8868.8866      1.4878471      0.34173705     4.1223713      33.041584    
         6   9075.7843      1.6240905      0.14985522     4.1202201      109.25126    
Loop time of 0.00308553 on 1 procs for 1 steps with 3 atoms

run 1 pre yes post no
PPPM initialization ...
  using 12-bit tables for long-range coulomb (src/kspace.cpp:342)
  G vector (1/distance) = 0.28934131
  grid = 18 18 18
  stencil order = 5
  estimated absolute RMS force accuracy = 7.7110449e-05
  estimated relative force accuracy = 5.3550243e-06
  using double precision KISS FFT
  3d grid and FFT values/proc = 15625 5832
Generated 0 of 21 mixed pair_coeff terms from geometric mixing rule
Per MPI rank memory allocation (min/avg/max) = 9.773 | 9.773 | 9.773 Mbytes
   Step          Temp          E_pair         E_mol          TotEng         Press     
         6   9075.7843      1.6240905      0.14985522     4.1202201      109.25126    
         7   8997.5522      1.7582064      0.035968243    4.1202245      177.01632    
Loop time of 0.00336017 on 1 procs for 1 steps with 3 atoms

run 1 pre yes post no
PPPM initialization ...
  using 12-bit tables for long-range coulomb (src/kspace.cpp:342)
  G vector (1/distance) = 0.28934131
  grid = 18 18 18
  stencil order = 5
  estimated absolute RMS force accuracy = 7.7110449e-05
  estimated relative force accuracy = 5.3550243e-06
  using double precision KISS FFT
  3d grid and FFT values/proc = 15625 5832
Generated 0 of 21 mixed pair_coeff terms from geometric mixing rule
Per MPI rank memory allocation (min/avg/max) = 9.773 | 9.773 | 9.773 Mbytes
   Step          Temp          E_pair         E_mol          TotEng         Press     
         7   8997.5522      1.7582064      0.035968243    4.1202245      177.01632    
         8   8640.1259      1.8870549      1.9248851e-05  4.120722       234.86123    
Loop time of 0.0033158 on 1 procs for 1 steps with 3 atoms

run 1 pre yes post no
PPPM initialization ...
  using 12-bit tables for long-range coulomb (src/kspace.cpp:342)
  G vector (1/distance) = 0.28934131
  grid = 18 18 18
  stencil order = 5
  estimated absolute RMS force accuracy = 7.7110449e-05
  estimated relative force accuracy = 5.3550243e-06
  using double precision KISS FFT
  3d grid and FFT values/proc = 15625 5832
Generated 0 of 21 mixed pair_coeff terms from geometric mixing rule
Per MPI rank memory allocation (min/avg/max) = 9.773 | 9.773 | 9.773 Mbytes
   Step          Temp          E_pair         E_mol          TotEng         Press     
         8   8640.1259      1.8870549      1.9248851e-05  4.120722       234.86123    
         9   8032.5668      2.0081749      0.036736084    4.1214925      282.17839    
Loop time of 0.00342042 on 1 procs for 1 steps with 3 atoms

run 1 pre yes post no
PPPM initialization ...
  using 12-bit tables for long-range coulomb (src/kspace.cpp:342)
  G vector (1/distance) = 0.28934131
  grid = 18 18 18
  stencil order = 5
  estimated absolute RMS force accuracy = 7.7110449e-05
  estimated relative force accuracy = 5.3550243e-06
  using double precision KISS FFT
  3d grid and FFT values/proc = 15625 5832
Generated 0 of 21 mixed pair_coeff terms from geometric mixing rule
Per MPI rank memory allocation (min/avg/max) = 9.773 | 9.773 | 9.773 Mbytes
   Step          Temp          E_pair         E_mol          TotEng         Press     
         9   8032.5668      2.0081749      0.036736084    4.1214925      282.17839    
        10   7220.4691      2.1197055      0.13613214     4.1224754      319.09046    
Loop time of 0.00350693 on 1 procs for 1 steps with 3 atoms

run 1 pre yes post no
PPPM initialization ...
  using 12-bit tables for long-range coulomb (src/kspace.cpp:342)
  G vector (1/distance) = 0.28934131
  grid = 18 18 18
  stencil order = 5
  estimated absolute RMS force accuracy = 7.7110449e-05
  estimated relative force accuracy = 5.3550243e-06
  using double precision KISS FFT
  3d grid and FFT values/proc = 15625 5832
Generated 0 of 21 mixed pair_coeff terms from geometric mixing rule
Per MPI rank memory allocation (min/avg/max) = 9.773 | 9.773 | 9.773 Mbytes
   Step          Temp          E_pair         E_mol          TotEng         Press     
        10   7220.4691      2.1197055      0.13613214     4.1224754      319.09046    
        11   6262.5843      2.2202942      0.28431494     4.1236143      346.33655    
Loop time of 0.00406668 on 1 procs for 1 steps with 3 atoms

run 1 pre yes post no
PPPM initialization ...
  using 12-bit tables for long-range coulomb (src/kspace.cpp:342)
  G vector (1/distance) = 0.28934131
  grid = 18 18 18
  stencil order = 5
  estimated absolute RMS force accuracy = 7.7110449e-05
  estimated relative force accuracy = 5.3550243e-06
  using double precision KISS FFT
  3d grid and FFT values/proc = 15625 5832
Generated 0 of 21 mixed pair_coeff terms from geometric mixing rule
Per MPI rank memory allocation (min/avg/max) = 9.773 | 9.773 | 9.773 Mbytes
   Step          Temp          E_pair         E_mol          TotEng         Press     
        11   6262.5843      2.2202942      0.28431494     4.1236143      346.33655    
        12   5227.0917      2.3089817      0.46454403     4.124835       365.13456    
Loop time of 0.00284095 on 1 procs for 1 steps with 3 atoms

run 1 pre yes post no
PPPM initialization ...
  using 12-bit tables for long-range coulomb (src/kspace.cpp:342)
  G vector (1/distance) = 0.28934131
  grid = 18 18 18
  stencil order = 5
  estimated absolute RMS force accuracy = 7.7110449e-05
  estimated relative force accuracy = 5.3550243e-06
  using double precision KISS FFT
  3d grid and FFT values/proc = 15625 5832
Generated 0 of 21 mixed pair_coeff terms from geometric mixing rule
Per MPI rank memory allocation (min/avg/max) = 9.773 | 9.773 | 9.773 Mbytes
   Step          Temp          E_pair         E_mol          TotEng         Press     
        12   5227.0917      2.3089817      0.46454403     4.124835       365.13456    
        13   4187.1471      2.3851169      0.65847725     4.1260567      377.02224    
Loop time of 0.00301833 on 1 procs for 1 steps with 3 atoms

run 1 pre yes post no
PPPM initialization ...
  using 12-bit tables for long-range coulomb (src/kspace.cpp:342)
  G vector (1/distance) = 0.28934131
  grid = 18 18 18
  stencil order = 5
  estimated absolute RMS force accuracy = 7.7110449e-05
  estimated relative force accuracy = 5.3550243e-06
  using double precision KISS FFT
  3d grid and FFT values/proc = 15625 5832
Generated 0 of 21 mixed pair_coeff terms from geometric mixing rule
Per MPI rank memory allocation (min/avg/max) = 9.773 | 9.773 | 9.773 Mbytes
   Step          Temp          E_pair         E_mol          TotEng         Press     
        13   4187.1471      2.3851169      0.65847725     4.1260567      377.02224    
        14   3215.9488      2.4482792      0.84752819     4.1271954      383.68544    
Loop time of 0.00274294 on 1 procs for 1 steps with 3 atoms

run 1 pre yes post no
PPPM initialization ...
  using 12-bit tables for long-range coulomb (src/kspace.cpp:342)
  G vector (1/distance) = 0.28934131
  grid = 18 18 18
  stencil order = 5
  estimated absolute RMS force accuracy = 7.7110449e-05
  estimated relative force accuracy = 5.3550243e-06
  using double precision KISS FFT
  3d grid and FFT values/proc = 15625 5832
Generated 0 of 21 mixed pair_coeff terms from geometric mixing rule
Per MPI rank memory allocation (min/avg/max) = 9.773 | 9.773 | 9.773 Mbytes
   Step          Temp          E_pair         E_mol          TotEng         Press     
        14   3215.9488      2.4482792      0.84752819     4.1271954      383.68544    
        15   2381.6623      2.4982184      1.0142446      4.128171       386.78538    
Loop time of 0.00271552 on 1 procs for 1 steps with 3 atoms

run 1 pre yes post no
PPPM initialization ...
  using 12-bit tables for long-range coulomb (src/kspace.cpp:342)
  G vector (1/distance) = 0.28934131
  grid = 18 18 18
  stencil order = 5
  estimated absolute RMS force accuracy = 7.7110449e-05
  estimated relative force accuracy = 5.3550243e-06
  using double precision KISS FFT
  3d grid and FFT values/proc = 15625 5832
Generated 0 of 21 mixed pair_coeff terms from geometric mixing rule
Per MPI rank memory allocation (min/avg/max) = 9.773 | 9.773 | 9.773 Mbytes
   Step          Temp          E_pair         E_mol          TotEng         Press     
        15   2381.6623      2.4982184      1.0142446      4.128171       386.78538    
        16   1742.5871      2.5348076      1.1436099      4.1289116      387.79639    
Loop time of 0.0027434 on 1 procs for 1 steps with 3 atoms

run 1 pre yes post no
PPPM initialization ...
  using 12-bit tables for long-range coulomb (src/kspace.cpp:342)
  G vector (1/distance) = 0.28934131
  grid = 18 18 18
  stencil order = 5
  estimated absolute RMS force accuracy = 7.7110449e-05
  estimated relative force accuracy = 5.3550243e-06
  using double precision KISS FFT
  3d grid and FFT values/proc = 15625 5832
Generated 0 of 21 mixed pair_coeff terms from geometric mixing rule
Per MPI rank memory allocation (min/avg/max) = 9.773 | 9.773 | 9.773 Mbytes
   Step          Temp          E_pair         E_mol          TotEng         Press     
        16   1742.5871      2.5348076      1.1436099      4.1289116      387.79639    
        17   1342.9492      2.5580153      1.2241697      4.1293647      387.8662     
Loop time of 0.00109946 on 1 procs for 1 steps with 3 atoms

run 1 pre yes post no
PPPM initialization ...
  using 12-bit tables for long-range coulomb (src/kspace.cpp:342)
  G vector (1/distance) = 0.28934131
  grid = 18 18 18
  stencil order = 5
  estimated absolute RMS force accuracy = 7.7110449e-05
  estimated relative force accuracy = 5.3550243e-06
  using double precision KISS FFT
  3d grid and FFT values/proc = 15625 5832
Generated 0 of 21 mixed pair_coeff terms from geometric mixing rule
Per MPI rank memory allocation (min/avg/max) = 9.773 | 9.773 | 9.773 Mbytes
   Step          Temp          E_pair         E_mol          TotEng         Press     
        17   1342.9492      2.5580153      1.2241697      4.1293647      387.8662     
        18   1209.6701      2.5678785      1.2488936      4.1294964      387.70905    
Loop time of 0.00104082 on 1 procs for 1 steps with 3 atoms

run 1 pre yes post no
PPPM initialization ...
  using 12-bit tables for long-range coulomb (src/kspace.cpp:342)
  G vector (1/distance) = 0.28934131
  grid = 18 18 18
  stencil order = 5
  estimated absolute RMS force accuracy = 7.7110449e-05
  estimated relative force accuracy = 5.3550243e-06
  using double precision KISS FFT
  3d grid and FFT values/proc = 15625 5832
Generated 0 of 21 mixed pair_coeff terms from geometric mixing rule
Per MPI rank memory allocation (min/avg/max) = 9.773 | 9.773 | 9.773 Mbytes
   Step          Temp          E_pair         E_mol          TotEng         Press     
        18   1209.6701      2.5678785      1.2488936      4.1294964      387.70905    
        19   1350.3966      2.564493       1.2156994      4.1292973      387.54065    
Loop time of 0.00143715 on 1 procs for 1 steps with 3 atoms

run 1 pre yes post no
PPPM initialization ...
  using 12-bit tables for long-range coulomb (src/kspace.cpp:342)
  G vector (1/distance) = 0.28934131
  grid = 18 18 18
  stencil order = 5
  estimated absolute RMS force accuracy = 7.7110449e-05
  estimated relative force accuracy = 5.3550243e-06
  using double precision KISS FFT
  3d grid and FFT values/proc = 15625 5832
Generated 0 of 21 mixed pair_coeff terms from geometric mixing rule
Per MPI rank memory allocation (min/avg/max) = 9.773 | 9.773 | 9.773 Mbytes
   Step          Temp          E_pair         E_mol          TotEng         Press     
        19   1350.3966      2.564493       1.2156994      4.1292973      387.54065    
        20   1752.9642      2.5480116      1.1275964      4.1287848      387.05996    
Loop time of 0.00178228 on 1 procs for 1 steps with 3 atoms

run 1 pre yes post no
PPPM initialization ...
  using 12-bit tables for long-range coulomb (src/kspace.cpp:342)
  G vector (1/distance) = 0.28934131
  grid = 18 18 18
  stencil order = 5
  estimated absolute RMS force accuracy = 7.7110449e-05
  estimated relative force accuracy = 5.3550243e-06
  using double precision KISS FFT
  3d grid and FFT values/proc = 15625 5832
Generated 0 of 21 mixed pair_coeff terms from geometric mixing rule
Per MPI rank memory allocation (min/avg/max) = 9.773 | 9.773 | 9.773 Mbytes
   Step          Temp          E_pair         E_mol          TotEng         Press     
        20   1752.9642      2.5480116      1.1275964      4.1287848      387.05996    
        21   2386.3425      2.5186452      0.99243456     4.1279977      385.47911    
Loop time of 0.00119563 on 1 procs for 1 steps with 3 atoms

run 1 pre yes post no
PPPM initialization ...
  using 12-bit tables for long-range coulomb (src/kspace.cpp:342)
  G vector (1/distance) = 0.28934131
  grid = 18 18 18
  stencil order = 5
  estimated absolute RMS force accuracy = 7.7110449e-05
  estimated relative force accuracy = 5.3550243e-06
  using double precision KISS FFT
  3d grid and FFT values/proc = 15625 5832
Generated 0 of 21 mixed pair_coeff terms from geometric mixing rule
Per MPI rank memory allocation (min/avg/max) = 9.773 | 9.773 | 9.773 Mbytes
   Step          Temp          E_pair         E_mol          TotEng         Press     
        21   2386.3425      2.5186452      0.99243456     4.1279977      385.47911    
        22   3202.9732      2.4766769      0.82228459     4.126995       381.59884    
Loop time of 0.00318447 on 1 procs for 1 steps with 3 atoms

run 1 pre yes post no
PPPM initialization ...
  using 12-bit tables for long-range coulomb (src/kspace.cpp:342)
  G vector (1/distance) = 0.28934131
  grid = 18 18 18
  stencil order = 5
  estimated absolute RMS force accuracy = 7.7110449e-05
  estimated relative force accuracy = 5.3550243e-06
  using double precision KISS FFT
  3d grid and FFT values/proc = 15625 5832
Generated 0 of 21 mixed pair_coeff terms from geometric mixing rule
Per MPI rank memory allocation (min/avg/max) = 9.773 | 9.773 | 9.773 Mbytes
   Step          Temp          E_pair         E_mol          TotEng         Press     
        22   3202.9732      2.4766769      0.82228459     4.126995       381.59884    
        23   4142.2922      2.422482       0.63250243     4.125851       373.92262    
Loop time of 0.00293845 on 1 procs for 1 steps with 3 atoms

run 1 pre yes post no
PPPM initialization ...
  using 12-bit tables for long-range coulomb (src/kspace.cpp:342)
  G vector (1/distance) = 0.28934131
  grid = 18 18 18
  stencil order = 5
  estimated absolute RMS force accuracy = 7.7110449e-05
  estimated relative force accuracy = 5.3550243e-06
  using double precision KISS FFT
  3d grid and FFT values/proc = 15625 5832
Generated 0 of 21 mixed pair_coeff terms from geometric mixing rule
Per MPI rank memory allocation (min/avg/max) = 9.773 | 9.773 | 9.773 Mbytes
   Step          Temp          E_pair         E_mol          TotEng         Press     
        23   4142.2922      2.422482       0.63250243     4.125851       373.92262    
        24   5135.1366      2.3565532      0.44055698     4.1246472      360.80006    
Loop time of 0.00333616 on 1 procs for 1 steps with 3 atoms

run 1 pre yes post no
PPPM initialization ...
  using 12-bit tables for long-range coulomb (src/kspace.cpp:342)
  G vector (1/distance) = 0.28934131
  grid = 18 18 18
  stencil order = 5
  estimated absolute RMS force accuracy = 7.7110449e-05
  estimated relative force accuracy = 5.3550243e-06
  using double precision KISS FFT
  3d grid and FFT values/proc = 15625 5832
Generated 0 of 21 mixed pair_coeff terms from geometric mixing rule
Per MPI rank memory allocation (min/avg/max) = 9.773 | 9.773 | 9.773 Mbytes
   Step          Temp          E_pair         E_mol          TotEng         Press     
        24   5135.1366      2.3565532      0.44055698     4.1246472      360.80006    
        25   6108.6842      2.2795375      0.26471283     4.1234691      340.58819    
Loop time of 0.00297116 on 1 procs for 1 steps with 3 atoms

run 1 pre yes post no
PPPM initialization ...
  using 12-bit tables for long-range coulomb (src/kspace.cpp:342)
  G vector (1/distance) = 0.28934131
  grid = 18 18 18
  stencil order = 5
  estimated absolute RMS force accuracy = 7.7110449e-05
  estimated relative force accuracy = 5.3550243e-06
  using double precision KISS FFT
  3d grid and FFT values/proc = 15625 5832
Generated 0 of 21 mixed pair_coeff terms from geometric mixing rule
Per MPI rank memory allocation (min/avg/max) = 9.773 | 9.773 | 9.773 Mbytes
   Step          Temp          E_pair         E_mol          TotEng         Press     
        25   6108.6842      2.2795375      0.26471283     4.1234691      340.58819    
        26   6991.5528      2.1922717      0.1226656      4.1223956      311.81827    
Loop time of 0.00283441 on 1 procs for 1 steps with 3 atoms

run 1 pre yes post no
PPPM initialization ...
  using 12-bit tables for long-range coulomb (src/kspace.cpp:342)
  G vector (1/distance) = 0.28934131
  grid = 18 18 18
  stencil order = 5
  estimated absolute RMS force accuracy = 7.7110449e-05
  estimated relative force accuracy = 5.3550243e-06
  using double precision KISS FFT
  3d grid and FFT values/proc = 15625 5832
Generated 0 of 21 mixed pair_coeff terms from geometric mixing rule
Per MPI rank memory allocation (min/avg/max) = 9.773 | 9.773 | 9.773 Mbytes
   Step          Temp          E_pair         E_mol          TotEng         Press     
        26   6991.5528      2.1922717      0.1226656      4.1223956      311.81827    
        27   7718.7002      2.0958329      0.03022504     4.1214985      273.35641    
Loop time of 0.00338354 on 1 procs for 1 steps with 3 atoms

run 1 pre yes post no
PPPM initialization ...
  using 12-bit tables for long-range coulomb (src/kspace.cpp:342)
  G vector (1/distance) = 0.28934131
  grid = 18 18 18
  stencil order = 5
  estimated absolute RMS force accuracy = 7.7110449e-05
  estimated relative force accuracy = 5.3550243e-06
  using double precision KISS FFT
  3d grid and FFT values/proc = 15625 5832
Generated 0 of 21 mixed pair_coeff terms from geometric mixing rule
Per MPI rank memory allocation (min/avg/max) = 9.773 | 9.773 | 9.773 Mbytes
   Step          Temp          E_pair         E_mol          TotEng         Press     
        27   7718.7002      2.0958329      0.03022504     4.1214985      273.35641    
        28   8235.8027      1.9915807      0.00013329449  4.1208361      224.54581    
Loop time of 0.0039313 on 1 procs for 1 steps with 3 atoms

run 1 pre yes post no
PPPM initialization ...
  using 12-bit tables for long-range coulomb (src/kspace.cpp:342)
  G vector (1/distance) = 0.28934131
  grid = 18 18 18
  stencil order = 5
  estimated absolute RMS force accuracy = 7.7110449e-05
  estimated relative force accuracy = 5.3550243e-06
  using double precision KISS FFT
  3d grid and FFT values/proc = 15625 5832
Generated 0 of 21 mixed pair_coeff terms from geometric mixing rule
Per MPI rank memory allocation (min/avg/max) = 9.773 | 9.773 | 9.773 Mbytes
   Step          Temp          E_pair         E_mol          TotEng         Press     
        28   8235.8027      1.9915807      0.00013329449  4.1208361      224.54581    
        29   8502.8564      1.8811987      0.04109337     4.120453       165.32089    
Loop time of 0.00320107 on 1 procs for 1 steps with 3 atoms

run 1 pre yes post no
PPPM initialization ...
  using 12-bit tables for long-range coulomb (src/kspace.cpp:342)
  G vector (1/distance) = 0.28934131
  grid = 18 18 18
  stencil order = 5
  estimated absolute RMS force accuracy = 7.7110449e-05
  estimated relative force accuracy = 5.3550243e-06
  using double precision KISS FFT
  3d grid and FFT values/proc = 15625 5832
Generated 0 of 21 mixed pair_coeff terms from geometric mixing rule
Per MPI rank memory allocation (min/avg/max) = 9.773 | 9.773 | 9.773 Mbytes
   Step          Temp          E_pair         E_mol          TotEng         Press     
        29   8502.8564      1.8811987      0.04109337     4.120453       165.32089    
        30   8496.9588      1.7667246      0.15706734     4.1204282      96.286387    
Loop time of 0.00322654 on 1 procs for 1 steps with 3 atoms

run 1 pre yes post no
PPPM initialization ...
  using 12-bit tables for long-range coulomb (src/kspace.cpp:342)
  G vector (1/distance) = 0.28934131
  grid = 18 18 18
  stencil order = 5
  estimated absolute RMS force accuracy = 7.7110449e-05
  estimated relative force accuracy = 5.3550243e-06
  using double precision KISS FFT
  3d grid and FFT values/proc = 15625 5832
Generated 0 of 21 mixed pair_coeff terms from geometric mixing rule
Per MPI rank memory allocation (min/avg/max) = 9.773 | 9.773 | 9.773 Mbytes
   Step          Temp          E_pair         E_mol          TotEng         Press     
        30   8496.9588      1.7667246      0.15706734     4.1204282      96.286387    
        31   8215.196       1.6505429      0.34689063     4.1212284      18.769391    
Loop time of 0.00328133 on 1 procs for 1 steps with 3 atoms

run 1 pre yes post no
PPPM initialization ...
  using 12-bit tables for long-range coulomb (src/kspace.cpp:342)
  G vector (1/distance) = 0.28934131
  grid = 18 18 18
  stencil order = 5
  estimated absolute RMS force accuracy = 7.7110449e-05
  estimated relative force accuracy = 5.3550243e-06
  using double precision KISS FFT
  3d grid and FFT values/proc = 15625 5832
Generated 0 of 21 mixed pair_coeff terms from geometric mixing rule
Per MPI rank memory allocation (min/avg/max) = 9.773 | 9.773 | 9.773 Mbytes
   Step          Temp          E_pair         E_mol          TotEng         Press     
        31   8215.196       1.6505429      0.34689063     4.1212284      18.769391    
        32   7681.2422      1.5353266      0.60427601     4.1253595     -65.110568    
Loop time of 0.00292738 on 1 procs for 1 steps with 3 atoms

run 1 pre yes post no
PPPM initialization ...
  using 12-bit tables for long-range coulomb (src/kspace.cpp:342)
  G vector (1/distance) = 0.28934131
  grid = 18 18 18
  stencil order = 5
  estimated absolute RMS force accuracy = 7.7110449e-05
  estimated relative force accuracy = 5.3550243e-06
  using double precision KISS FFT
  3d grid and FFT values/proc = 15625 5832
Generated 0 of 21 mixed pair_coeff terms from geometric mixing rule
Per MPI rank memory allocation (min/avg/max) = 9.773 | 9.773 | 9.773 Mbytes
   Step          Temp          E_pair         E_mol          TotEng         Press     
        32   7681.2422      1.5353266      0.60427601     4.1253595     -65.110568    
        33   6959.4538      1.4238028      0.91848772     4.1414505     -152.34165    
Loop time of 0.00351623 on 1 procs for 1 steps with 3 atoms

run 1 pre yes post no
PPPM initialization ...
  using 12-bit tables for long-range coulomb (src/kspace.cpp:342)
  G vector (1/distance) = 0.28934131
  grid = 18 18 18
  stencil order = 5
  estimated absolute RMS force accuracy = 7.7110449e-05
  estimated relative force accuracy = 5.3550243e-06
  using double precision KISS FFT
  3d grid and FFT values/proc = 15625 5832
Generated 0 of 21 mixed pair_coeff terms from geometric mixing rule
Per MPI rank memory allocation (min/avg/max) = 9.773 | 9.773 | 9.773 Mbytes
   Step          Temp          E_pair         E_mol          TotEng         Press     
        33   6959.4538      1.4238028      0.91848772     4.1414505     -152.34165    
        34   6165.3528      1.3182348      1.2763954      4.1884991     -239.16383    
Loop time of 0.00331899 on 1 procs for 1 steps with 3 atoms

run 1 pre yes post no
PPPM initialization ...
  using 12-bit tables for long-range coulomb (src/kspace.cpp:342)
  G vector (1/distance) = 0.28934131
  grid = 18 18 18
  stencil order = 5
  estimated absolute RMS force accuracy = 7.7110449e-05
  estimated relative force accuracy = 5.3550243e-06
  using double precision KISS FFT
  3d grid and FFT values/proc = 15625 5832
Generated 0 of 21 mixed pair_coeff terms from geometric mixing rule
Per MPI rank memory allocation (min/avg/max) = 9.773 | 9.773 | 9.773 Mbytes
   Step          Temp          E_pair         E_mol          TotEng         Press     
        34   6165.3528      1.3182348      1.2763954      4.1884991     -239.16383    
        35   5442.4068      1.2196515      1.6663898      4.2930139     -321.94126    
Loop time of 0.00321662 on 1 procs for 1 steps with 3 atoms

run 1 pre yes post no
PPPM initialization ...
  using 12-bit tables for long-range coulomb (src/kspace.cpp:342)
  G vector (1/distance) = 0.28934131
  grid = 18 18 18
  stencil order = 5
  estimated absolute RMS force accuracy = 7.7110449e-05
  estimated relative force accuracy = 5.3550243e-06
  using double precision KISS FFT
  3d grid and FFT values/proc = 15625 5832
Generated 0 of 21 mixed pair_coeff terms from geometric mixing rule
Per MPI rank memory allocation (min/avg/max) = 9.773 | 9.773 | 9.773 Mbytes
   Step          Temp          E_pair         E_mol          TotEng         Press     
        35   5442.4068      1.2196515      1.6663898      4.2930139     -321.94126    
        36   4898.6756      1.1275404      2.0825283      4.4764758     -398.5164     
Loop time of 0.00332709 on 1 procs for 1 steps with 3 atoms

run 1 pre yes post no
PPPM initialization ...
  using 12-bit tables for long-range coulomb (src/kspace.cpp:342)
  G vector (1/distance) = 0.28934131
  grid = 18 18 18
  stencil order = 5
  estimated absolute RMS force accuracy = 7.7110449e-05
  estimated relative force accuracy = 5.3550243e-06
  using double precision KISS FFT
  3d grid and FFT values/proc = 15625 5832
Generated 0 of 21 mixed pair_coeff terms from geometric mixing rule
Per MPI rank memory allocation (min/avg/max) = 9.773 | 9.773 | 9.773 Mbytes
   Step          Temp          E_pair         E_mol          TotEng         Press     
        36   4898.6756      1.1275404      2.0825283      4.4764758     -398.5164     
        37   4559.6017      1.0407156      2.5251316      4.7445968     -468.63432    
Loop time of 0.00281283 on 1 procs for 1 steps with 3 atoms

run 1 pre yes post no
PPPM initialization ...
  using 12-bit tables for long-range coulomb (src/kspace.cpp:342)
  G vector (1/distance) = 0.28934131
  grid = 18 18 18
  stencil order = 5
  estimated absolute RMS force accuracy = 7.7110449e-05
  estimated relative force accuracy = 5.3550243e-06
  using double precision KISS FFT
  3d grid and FFT values/proc = 15625 5832
Generated 0 of 21 mixed pair_coeff terms from geometric mixing rule
Per MPI rank memory allocation (min/avg/max) = 9.773 | 9.773 | 9.773 Mbytes
   Step          Temp          E_pair         E_mol          TotEng         Press     
        37   4559.6017      1.0407156      2.5251316      4.7445968     -468.63432    
        38   4405.9305      0.95895468     2.9972354      5.0952125     -532.48381    
Loop time of 0.00333892 on 1 procs for 1 steps with 3 atoms

run 0 pre yes post no
PPPM initialization ...
  using 12-bit tables for long-range coulomb (src/kspace.cpp:342)
  G vector (1/distance) = 0.28934131
  grid = 18 18 18
  stencil order = 5
  estimated absolute RMS force accuracy = 7.7110449e-05
  estimated relative force accuracy = 5.3550243e-06
  using double precision KISS FFT
  3d grid and FFT values/proc = 15625 5832
Generated 0 of 21 mixed pair_coeff terms from geometric mixing rule
Per MPI rank memory allocation (min/avg/max) = 9.773 | 9.773 | 9.773 Mbytes
   Step          Temp          E_pair         E_mol          TotEng         Press     
        38   4405.9305      0.95895468     2.9972354      5.0952125     -532.48381    
Loop time of 7.92e-07 on 1 procs for 0 steps with 3 atoms

run 0 pre yes post no
PPPM initialization ...
  using 12-bit tables for long-range coulomb (src/kspace.cpp:342)
  G vector (1/distance) = 0.28934131
  grid = 18 18 18
  stencil order = 5
  estimated absolute RMS force accuracy = 7.7110449e-05
  estimated relative force accuracy = 5.3550243e-06
  using double precision KISS FFT
  3d grid and FFT values/proc = 15625 5832
Generated 0 of 21 mixed pair_coeff terms from geometric mixing rule
Per MPI rank memory allocation (min/avg/max) = 9.773 | 9.773 | 9.773 Mbytes
   Step          Temp          E_pair         E_mol          TotEng         Press     
        38   4405.9305      0.95895468     2.9972354      5.0952125     -532.48381    
Loop time of 6.31e-07 on 1 procs for 0 steps with 3 atoms

clear
OMP_NUM_THREADS environment is not set. Defaulting to 1 thread. (src/comm.cpp:98)
  using 1 OpenMP thread(s) per MPI task
units metal
atom_style full
boundary p p p
read_data /tmp/mustard.1db41283f1a74d1b97c38b9120794fbd
Reading data file ...
  triclinic box = (0 0 0) to (25.319 25.319 25.319) with tilt (0 0 0)
  1 by 1 by 1 MPI processor grid
  reading atoms ...
  3 atoms
  reading velocities ...
  3 velocities
  scanning bonds ...
  1 = max bonds/atom
  reading bonds ...
  1 bonds
Finding 1-2 1-3 1-4 neighbors ...
  special bond factors lj:    0        0        0       
  special bond factors coul:  0        0        0       
     1 = max # of 1-2 neighbors
     0 = max # of 1-3 neighbors
     0 = max # of 1-4 neighbors
     1 = max # of special neighbors
  special bonds CPU = 0.000 seconds
  read_data CPU = 0.001 seconds

change_box all triclinic
Changing box ...
  triclinic box = (0 0 0) to (25.319 25.319 25.319) with tilt (0 0 0)
include ff.lmp
##############################################################################################
#### Atoms' types - mass - charge
##############################################################################################
#@ 7   atom types

variable Ba  equal 1
variable Zr  equal 2
variable  Y  equal 3
variable O1  equal 4
variable O2  equal 5
variable O3  equal 6
variable H1  equal 7

##############################################################################################
#### Atoms' masses
##############################################################################################

mass  ${Ba}   137.327
mass  1   137.327
mass  ${Zr}    91.224
mass  2    91.224
mass  ${Y}     88.910
mass  3     88.910
mass  ${O1}    100000
mass  4    100000
# mass  ${O1}    15.996
mass  ${O2}    100000
mass  5    100000
# mass  ${O2}    15.996
mass  ${O3}    15.996
mass  6    15.996
mass  ${H1}     1.008
mass  7     1.008

##############################################################################################
#### Atoms' charges
##############################################################################################

set type ${Ba}  charge     2.000000
set type 1  charge     2.000000
Setting atom values ...
  0 settings made for charge
set type ${Zr}  charge     4.000000
set type 2  charge     4.000000
Setting atom values ...
  0 settings made for charge
set type ${Y}   charge     3.000000
set type 3   charge     3.000000
Setting atom values ...
  0 settings made for charge
set type ${O1}  charge    -1.308698
set type 4  charge    -1.308698
Setting atom values ...
  1 settings made for charge
set type ${O2}  charge    -2.000000
set type 5  charge    -2.000000
Setting atom values ...
  1 settings made for charge
set type ${O3}  charge    -2.000000
set type 6  charge    -2.000000
Setting atom values ...
  0 settings made for charge
set type ${H1}  charge     0.308698
set type 7  charge     0.308698
Setting atom values ...
  1 settings made for charge

##############################################################################################
#### Covalent bonds parameters
##############################################################################################
#@  1   bond types

bond_style harmonic
#@ O1 - H1
# bond_coeff   1      11.504000      0.985357
bond_coeff   1      23.008000      0.985357

##############################################################################################
# Pair potentials
##############################################################################################

variable rmin  equal  8.
variable rmax  equal 10.

pair_style hybrid/overlay buck/mdf ${rmin} ${rmax} lennard/mdf ${rmin} ${rmax} coul/long ${rmax}
pair_style hybrid/overlay buck/mdf 8 ${rmax} lennard/mdf ${rmin} ${rmax} coul/long ${rmax}
pair_style hybrid/overlay buck/mdf 8 10 lennard/mdf ${rmin} ${rmax} coul/long ${rmax}
pair_style hybrid/overlay buck/mdf 8 10 lennard/mdf 8 ${rmax} coul/long ${rmax}
pair_style hybrid/overlay buck/mdf 8 10 lennard/mdf 8 10 coul/long ${rmax}
pair_style hybrid/overlay buck/mdf 8 10 lennard/mdf 8 10 coul/long 10

##############################################################################################
# Buckingham interaction potentials
pair_coeff  ${Ba}  ${O1}  buck/mdf   688.21662   0.392014   0.000
pair_coeff  1  ${O1}  buck/mdf   688.21662   0.392014   0.000
pair_coeff  1  4  buck/mdf   688.21662   0.392014   0.000
pair_coeff  ${Ba}  ${O2}  buck/mdf   972.19945   0.392014   0.000
pair_coeff  1  ${O2}  buck/mdf   972.19945   0.392014   0.000
pair_coeff  1  5  buck/mdf   972.19945   0.392014   0.000
pair_coeff  ${Ba}  ${O3}  buck/mdf   972.19945   0.392014   0.000
pair_coeff  1  ${O3}  buck/mdf   972.19945   0.392014   0.000
pair_coeff  1  6  buck/mdf   972.19945   0.392014   0.000

pair_coeff  ${Y}   ${O1}  buck/mdf   2972.3808   0.267317   0.000
pair_coeff  3   ${O1}  buck/mdf   2972.3808   0.267317   0.000
pair_coeff  3   4  buck/mdf   2972.3808   0.267317   0.000
pair_coeff  ${Y}   ${O2}  buck/mdf   4121.8373   0.280386   0.000
pair_coeff  3   ${O2}  buck/mdf   4121.8373   0.280386   0.000
pair_coeff  3   5  buck/mdf   4121.8373   0.280386   0.000
pair_coeff  ${Y}   ${O3}  buck/mdf   4121.8373   0.280386   0.000
pair_coeff  3   ${O3}  buck/mdf   4121.8373   0.280386   0.000
pair_coeff  3   6  buck/mdf   4121.8373   0.280386   0.000

pair_coeff  ${Zr}  ${O1}  buck/mdf   2195.8712   0.298760   0.000
pair_coeff  2  ${O1}  buck/mdf   2195.8712   0.298760   0.000
pair_coeff  2  4  buck/mdf   2195.8712   0.298760   0.000
pair_coeff  ${Zr}  ${O2}  buck/mdf   3250.8545   0.298760   0.000
pair_coeff  2  ${O2}  buck/mdf   3250.8545   0.298760   0.000
pair_coeff  2  5  buck/mdf   3250.8545   0.298760   0.000
pair_coeff  ${Zr}  ${O3}  buck/mdf   3250.8545   0.298760   0.000
pair_coeff  2  ${O3}  buck/mdf   3250.8545   0.298760   0.000
pair_coeff  2  6  buck/mdf   3250.8545   0.298760   0.000

pair_coeff  ${O1}  ${O1}  buck/mdf   22764.000   0.149000   0.000
pair_coeff  4  ${O1}  buck/mdf   22764.000   0.149000   0.000
pair_coeff  4  4  buck/mdf   22764.000   0.149000   0.000
pair_coeff  ${O1}  ${O2}  buck/mdf   22764.000   0.149000   0.000
pair_coeff  4  ${O2}  buck/mdf   22764.000   0.149000   0.000
pair_coeff  4  5  buck/mdf   22764.000   0.149000   0.000
pair_coeff  ${O1}  ${O3}  buck/mdf   22764.000   0.149000   0.000
pair_coeff  4  ${O3}  buck/mdf   22764.000   0.149000   0.000
pair_coeff  4  6  buck/mdf   22764.000   0.149000   0.000

pair_coeff  ${O2}  ${O2}  buck/mdf   22764.000   0.149000   0.000
pair_coeff  5  ${O2}  buck/mdf   22764.000   0.149000   0.000
pair_coeff  5  5  buck/mdf   22764.000   0.149000   0.000
pair_coeff  ${O2}  ${O3}  buck/mdf   22764.000   0.149000   0.000
pair_coeff  5  ${O3}  buck/mdf   22764.000   0.149000   0.000
pair_coeff  5  6  buck/mdf   22764.000   0.149000   0.000

pair_coeff  ${O3}  ${O3}  buck/mdf   22764.000   0.149000   0.000
pair_coeff  6  ${O3}  buck/mdf   22764.000   0.149000   0.000
pair_coeff  6  6  buck/mdf   22764.000   0.149000   0.000

##############################################################################################
# 12-6 Lennard-Jones potentials
pair_coeff  ${O1}  ${H1}  lennard/mdf    6.391   0.000
pair_coeff  4  ${H1}  lennard/mdf    6.391   0.000
pair_coeff  4  7  lennard/mdf    6.391   0.000
pair_coeff  ${O2}  ${H1}  lennard/mdf    6.391   0.000
pair_coeff  5  ${H1}  lennard/mdf    6.391   0.000
pair_coeff  5  7  lennard/mdf    6.391   0.000
pair_coeff  ${O3}  ${H1}  lennard/mdf    7.800   0.000
pair_coeff  6  ${H1}  lennard/mdf    7.800   0.000
pair_coeff  6  7  lennard/mdf    7.800   0.000

##############################################################################################
# Coulombic interaction
pair_coeff      *      *  coul/long

#########################################################################################################
# Parameters for reciprocal space electrostatics
#########################################################################################################

kspace_style pppm 1.0e-5
kspace_modify fftbench no
fix md all nve
timestep 0.0002

change_box all x final 0.0 25.319 y final 0.0 25.319 z final 0.0 25.319 xy final 0.0 xz final 0.0 yz final 0.0
Changing box ...
  triclinic box = (0 0 0) to (25.319 25.319 25.319) with tilt (0 0 0)
  triclinic box = (0 0 0) to (25.319 25.319 25.319) with tilt (0 0 0)
  triclinic box = (0 0 0) to (25.319 25.319 25.319) with tilt (0 0 0)
  triclinic box = (0 0 0) to (25.319 25.319 25.319) with tilt (0 0 0)
  triclinic box = (0 0 0) to (25.319 25.319 25.319) with tilt (0 0 0)
  triclinic box = (0 0 0) to (25.319 25.319 25.319) with tilt (0 0 0)
fix ux all store/state 1 xu yu zu
fix ext all external pf/callback 1 1
fix_modify ext energy no
fix_modify ext virial no
compute get_pe all pe

run 0 pre yes post no
PPPM initialization ...
WARNING: System is not charge neutral, net charge = -3 (src/kspace.cpp:327)
  using 12-bit tables for long-range coulomb (src/kspace.cpp:342)
  G vector (1/distance) = 0.28934131
  grid = 18 18 18
  stencil order = 5
  estimated absolute RMS force accuracy = 7.7110449e-05
  estimated relative force accuracy = 5.3550243e-06
  using double precision KISS FFT
  3d grid and FFT values/proc = 15625 5832
Generated 0 of 21 mixed pair_coeff terms from geometric mixing rule
Neighbor list info ...
  update: every = 1 steps, delay = 0 steps, check = yes
  max neighbors/atom: 2000, page size: 100000
  master list distance cutoff = 12
  ghost atom cutoff = 12
  binsize = 6, bins = 5 5 5
  3 neighbor lists, perpetual/occasional/extra = 3 0 0
  (1) pair buck/mdf, perpetual, skip from (3)
      attributes: half, newton on
      pair build: skip
      stencil: none
      bin: none
  (2) pair lennard/mdf, perpetual, skip from (3)
      attributes: half, newton on
      pair build: skip
      stencil: none
      bin: none
  (3) pair coul/long, perpetual
      attributes: half, newton on
      pair build: half/bin/newton/tri
      stencil: half/bin/3d/tri
      bin: standard
Per MPI rank memory allocation (min/avg/max) = 9.773 | 9.773 | 9.773 Mbytes
   Step          Temp          E_pair         E_mol          TotEng         Press     
         0   4443.834       1.0368005      2.6045959      4.7902176     -482.99821    
Loop time of 1.453e-06 on 1 procs for 0 steps with 3 atoms

run 0 pre yes post no
PPPM initialization ...
  using 12-bit tables for long-range coulomb (src/kspace.cpp:342)
  G vector (1/distance) = 0.28934131
  grid = 18 18 18
  stencil order = 5
  estimated absolute RMS force accuracy = 7.7110449e-05
  estimated relative force accuracy = 5.3550243e-06
  using double precision KISS FFT
  3d grid and FFT values/proc = 15625 5832
Generated 0 of 21 mixed pair_coeff terms from geometric mixing rule
Per MPI rank memory allocation (min/avg/max) = 9.773 | 9.773 | 9.773 Mbytes
   Step          Temp          E_pair         E_mol          TotEng         Press     
         0   4443.834       1.0368005      2.6045959      4.7902176     -482.99821    
Loop time of 1.052e-06 on 1 procs for 0 steps with 3 atoms

run 1 pre yes post no
PPPM initialization ...
  using 12-bit tables for long-range coulomb (src/kspace.cpp:342)
  G vector (1/distance) = 0.28934131
  grid = 18 18 18
  stencil order = 5
  estimated absolute RMS force accuracy = 7.7110449e-05
  estimated relative force accuracy = 5.3550243e-06
  using double precision KISS FFT
  3d grid and FFT values/proc = 15625 5832
Generated 0 of 21 mixed pair_coeff terms from geometric mixing rule
Per MPI rank memory allocation (min/avg/max) = 9.773 | 9.773 | 9.773 Mbytes
   Step          Temp          E_pair         E_mol          TotEng         Press     
         0   4405.9305      1.0368005      2.6045959      4.7804188     -483.64305    
         1   4455.4218      1.1363726      2.2137612      4.5019507     -429.47082    
Loop time of 0.00648804 on 1 procs for 1 steps with 3 atoms

run 1 pre yes post no
PPPM initialization ...
  using 12-bit tables for long-range coulomb (src/kspace.cpp:342)
  G vector (1/distance) = 0.28934131
  grid = 18 18 18
  stencil order = 5
  estimated absolute RMS force accuracy = 7.7110449e-05
  estimated relative force accuracy = 5.3550243e-06
  using double precision KISS FFT
  3d grid and FFT values/proc = 15625 5832
Generated 0 of 21 mixed pair_coeff terms from geometric mixing rule
Per MPI rank memory allocation (min/avg/max) = 9.773 | 9.773 | 9.773 Mbytes
   Step          Temp          E_pair         E_mol          TotEng         Press     
         1   4455.4218      1.1363726      2.2137612      4.5019507     -429.47082    
         2   4757.0128      1.2410648      1.8383184      4.3091676     -366.48377    
Loop time of 0.00552501 on 1 procs for 1 steps with 3 atoms

run 1 pre yes post no
PPPM initialization ...
  using 12-bit tables for long-range coulomb (src/kspace.cpp:342)
  G vector (1/distance) = 0.28934131
  grid = 18 18 18
  stencil order = 5
  estimated absolute RMS force accuracy = 7.7110449e-05
  estimated relative force accuracy = 5.3550243e-06
  using double precision KISS FFT
  3d grid and FFT values/proc = 15625 5832
Generated 0 of 21 mixed pair_coeff terms from geometric mixing rule
Per MPI rank memory allocation (min/avg/max) = 9.773 | 9.773 | 9.773 Mbytes
   Step          Temp          E_pair         E_mol          TotEng         Press     
         2   4757.0128      1.2410648      1.8383184      4.3091676     -366.48377    
         3   5304.2224      1.351436       1.4749222      4.1976073     -294.55531    
Loop time of 0.00427412 on 1 procs for 1 steps with 3 atoms

run 1 pre yes post no
PPPM initialization ...
  using 12-bit tables for long-range coulomb (src/kspace.cpp:342)
  G vector (1/distance) = 0.28934131
  grid = 18 18 18
  stencil order = 5
  estimated absolute RMS force accuracy = 7.7110449e-05
  estimated relative force accuracy = 5.3550243e-06
  using double precision KISS FFT
  3d grid and FFT values/proc = 15625 5832
Generated 0 of 21 mixed pair_coeff terms from geometric mixing rule
Per MPI rank memory allocation (min/avg/max) = 9.773 | 9.773 | 9.773 Mbytes
   Step          Temp          E_pair         E_mol          TotEng         Press     
         3   5304.2224      1.351436       1.4749222      4.1976073     -294.55531    
         4   5999.9899      1.4677466      1.1271535      4.1460192     -215.52301    
Loop time of 0.00329595 on 1 procs for 1 steps with 3 atoms

run 1 pre yes post no
PPPM initialization ...
  using 12-bit tables for long-range coulomb (src/kspace.cpp:342)
  G vector (1/distance) = 0.28934131
  grid = 18 18 18
  stencil order = 5
  estimated absolute RMS force accuracy = 7.7110449e-05
  estimated relative force accuracy = 5.3550243e-06
  using double precision KISS FFT
  3d grid and FFT values/proc = 15625 5832
Generated 0 of 21 mixed pair_coeff terms from geometric mixing rule
Per MPI rank memory allocation (min/avg/max) = 9.773 | 9.773 | 9.773 Mbytes
   Step          Temp          E_pair         E_mol          TotEng         Press     
         4   5999.9899      1.4677466      1.1271535      4.1460192     -215.52301    
         5   6704.0646      1.5889411      0.80553823     4.1276161     -132.86021    
Loop time of 0.00333572 on 1 procs for 1 steps with 3 atoms

run 1 pre yes post no
PPPM initialization ...
  using 12-bit tables for long-range coulomb (src/kspace.cpp:342)
  G vector (1/distance) = 0.28934131
  grid = 18 18 18
  stencil order = 5
  estimated absolute RMS force accuracy = 7.7110449e-05
  estimated relative force accuracy = 5.3550243e-06
  using double precision KISS FFT
  3d grid and FFT values/proc = 15625 5832
Generated 0 of 21 mixed pair_coeff terms from geometric mixing rule
Per MPI rank memory allocation (min/avg/max) = 9.773 | 9.773 | 9.773 Mbytes
   Step          Temp          E_pair         E_mol          TotEng         Press     
         5   6704.0646      1.5889411      0.80553823     4.1276161     -132.86021    
         6   7294.9115      1.7129084      0.52377204     4.1225631     -50.399179    
Loop time of 0.00277572 on 1 procs for 1 steps with 3 atoms

run 1 pre yes post no
PPPM initialization ...
  using 12-bit tables for long-range coulomb (src/kspace.cpp:342)
  G vector (1/distance) = 0.28934131
  grid = 18 18 18
  stencil order = 5
  estimated absolute RMS force accuracy = 7.7110449e-05
  estimated relative force accuracy = 5.3550243e-06
  using double precision KISS FFT
  3d grid and FFT values/proc = 15625 5832
Generated 0 of 21 mixed pair_coeff terms from geometric mixing rule
Per MPI rank memory allocation (min/avg/max) = 9.773 | 9.773 | 9.773 Mbytes
   Step          Temp          E_pair         E_mol          TotEng         Press     
         6   7294.9115      1.7129084      0.52377204     4.1225631     -50.399179    
         7   7695.4919      1.8371667      0.29474797     4.1213555      28.572022    
Loop time of 0.00293168 on 1 procs for 1 steps with 3 atoms

run 1 pre yes post no
PPPM initialization ...
  using 12-bit tables for long-range coulomb (src/kspace.cpp:342)
  G vector (1/distance) = 0.28934131
  grid = 18 18 18
  stencil order = 5
  estimated absolute RMS force accuracy = 7.7110449e-05
  estimated relative force accuracy = 5.3550243e-06
  using double precision KISS FFT
  3d grid and FFT values/proc = 15625 5832
Generated 0 of 21 mixed pair_coeff terms from geometric mixing rule
Per MPI rank memory allocation (min/avg/max) = 9.773 | 9.773 | 9.773 Mbytes
   Step          Temp          E_pair         E_mol          TotEng         Press     
         7   7695.4919      1.8371667      0.29474797     4.1213555      28.572022    
         8   7865.9355      1.9593627      0.12819244     4.121059       101.52202    
Loop time of 0.00275621 on 1 procs for 1 steps with 3 atoms

run 1 pre yes post no
PPPM initialization ...
  using 12-bit tables for long-range coulomb (src/kspace.cpp:342)
  G vector (1/distance) = 0.28934131
  grid = 18 18 18
  stencil order = 5
  estimated absolute RMS force accuracy = 7.7110449e-05
  estimated relative force accuracy = 5.3550243e-06
  using double precision KISS FFT
  3d grid and FFT values/proc = 15625 5832
Generated 0 of 21 mixed pair_coeff terms from geometric mixing rule
Per MPI rank memory allocation (min/avg/max) = 9.773 | 9.773 | 9.773 Mbytes
   Step          Temp          E_pair         E_mol          TotEng         Press     
         8   7865.9355      1.9593627      0.12819244     4.121059       101.52202    
         9   7790.4837      2.0774544      0.029649418    4.121102       166.60924    
Loop time of 0.00285131 on 1 procs for 1 steps with 3 atoms

run 1 pre yes post no
PPPM initialization ...
  using 12-bit tables for long-range coulomb (src/kspace.cpp:342)
  G vector (1/distance) = 0.28934131
  grid = 18 18 18
  stencil order = 5
  estimated absolute RMS force accuracy = 7.7110449e-05
  estimated relative force accuracy = 5.3550243e-06
  using double precision KISS FFT
  3d grid and FFT values/proc = 15625 5832
Generated 0 of 21 mixed pair_coeff terms from geometric mixing rule
Per MPI rank memory allocation (min/avg/max) = 9.773 | 9.773 | 9.773 Mbytes
   Step          Temp          E_pair         E_mol          TotEng         Press     
         9   7790.4837      2.0774544      0.029649418    4.121102       166.60924    
        10   7471.4838      2.1897476      0.00013345543  4.1214112      222.63673    
Loop time of 0.00278645 on 1 procs for 1 steps with 3 atoms

run 1 pre yes post no
PPPM initialization ...
  using 12-bit tables for long-range coulomb (src/kspace.cpp:342)
  G vector (1/distance) = 0.28934131
  grid = 18 18 18
  stencil order = 5
  estimated absolute RMS force accuracy = 7.7110449e-05
  estimated relative force accuracy = 5.3550243e-06
  using double precision KISS FFT
  3d grid and FFT values/proc = 15625 5832
Generated 0 of 21 mixed pair_coeff terms from geometric mixing rule
Per MPI rank memory allocation (min/avg/max) = 9.773 | 9.773 | 9.773 Mbytes
   Step          Temp          E_pair         E_mol          TotEng         Press     
        10   7471.4838      2.1897476      0.00013345543  4.1214112      222.63673    
        11   6927.6511      2.2948758      0.036150356    4.1219646      269.0369     
Loop time of 0.00281345 on 1 procs for 1 steps with 3 atoms

run 1 pre yes post no
PPPM initialization ...
  using 12-bit tables for long-range coulomb (src/kspace.cpp:342)
  G vector (1/distance) = 0.28934131
  grid = 18 18 18
  stencil order = 5
  estimated absolute RMS force accuracy = 7.7110449e-05
  estimated relative force accuracy = 5.3550243e-06
  using double precision KISS FFT
  3d grid and FFT values/proc = 15625 5832
Generated 0 of 21 mixed pair_coeff terms from geometric mixing rule
Per MPI rank memory allocation (min/avg/max) = 9.773 | 9.773 | 9.773 Mbytes
   Step          Temp          E_pair         E_mol          TotEng         Press     
        11   6927.6511      2.2948758      0.036150356    4.1219646      269.0369     
        12   6192.7265      2.3917619      0.13001802     4.1227253      305.83773    
Loop time of 0.00323092 on 1 procs for 1 steps with 3 atoms

run 1 pre yes post no
PPPM initialization ...
  using 12-bit tables for long-range coulomb (src/kspace.cpp:342)
  G vector (1/distance) = 0.28934131
  grid = 18 18 18
  stencil order = 5
  estimated absolute RMS force accuracy = 7.7110449e-05
  estimated relative force accuracy = 5.3550243e-06
  using double precision KISS FFT
  3d grid and FFT values/proc = 15625 5832
Generated 0 of 21 mixed pair_coeff terms from geometric mixing rule
Per MPI rank memory allocation (min/avg/max) = 9.773 | 9.773 | 9.773 Mbytes
   Step          Temp          E_pair         E_mol          TotEng         Press     
        12   6192.7265      2.3917619      0.13001802     4.1227253      305.83773    
        13   5313.3229      2.4795848      0.270461       4.1236476      333.59619    
Loop time of 0.00296337 on 1 procs for 1 steps with 3 atoms

run 1 pre yes post no
PPPM initialization ...
  using 12-bit tables for long-range coulomb (src/kspace.cpp:342)
  G vector (1/distance) = 0.28934131
  grid = 18 18 18
  stencil order = 5
  estimated absolute RMS force accuracy = 7.7110449e-05
  estimated relative force accuracy = 5.3550243e-06
  using double precision KISS FFT
  3d grid and FFT values/proc = 15625 5832
Generated 0 of 21 mixed pair_coeff terms from geometric mixing rule
Per MPI rank memory allocation (min/avg/max) = 9.773 | 9.773 | 9.773 Mbytes
   Step          Temp          E_pair         E_mol          TotEng         Press     
        13   5313.3229      2.4795848      0.270461       4.1236476      333.59619    
        14   4345.884       2.5577275      0.44344055     4.1246673      353.29987    
Loop time of 0.00283886 on 1 procs for 1 steps with 3 atoms

run 1 pre yes post no
PPPM initialization ...
  using 12-bit tables for long-range coulomb (src/kspace.cpp:342)
  G vector (1/distance) = 0.28934131
  grid = 18 18 18
  stencil order = 5
  estimated absolute RMS force accuracy = 7.7110449e-05
  estimated relative force accuracy = 5.3550243e-06
  using double precision KISS FFT
  3d grid and FFT values/proc = 15625 5832
Generated 0 of 21 mixed pair_coeff terms from geometric mixing rule
Per MPI rank memory allocation (min/avg/max) = 9.773 | 9.773 | 9.773 Mbytes
   Step          Temp          E_pair         E_mol          TotEng         Press     
        14   4345.884       2.5577275      0.44344055     4.1246673      353.29987    
        15   3352.9388      2.6257502      0.63316522     4.1257182      366.24573    
Loop time of 0.00122787 on 1 procs for 1 steps with 3 atoms

run 1 pre yes post no
PPPM initialization ...
  using 12-bit tables for long-range coulomb (src/kspace.cpp:342)
  G vector (1/distance) = 0.28934131
  grid = 18 18 18
  stencil order = 5
  estimated absolute RMS force accuracy = 7.7110449e-05
  estimated relative force accuracy = 5.3550243e-06
  using double precision KISS FFT
  3d grid and FFT values/proc = 15625 5832
Generated 0 of 21 mixed pair_coeff terms from geometric mixing rule
Per MPI rank memory allocation (min/avg/max) = 9.773 | 9.773 | 9.773 Mbytes
   Step          Temp          E_pair         E_mol          TotEng         Press     
        15   3352.9388      2.6257502      0.63316522     4.1257182      366.24573    
        16   2398.9059      2.6833491      0.82321387     4.1267288      373.90297    
Loop time of 0.00111127 on 1 procs for 1 steps with 3 atoms

run 1 pre yes post no
PPPM initialization ...
  using 12-bit tables for long-range coulomb (src/kspace.cpp:342)
  G vector (1/distance) = 0.28934131
  grid = 18 18 18
  stencil order = 5
  estimated absolute RMS force accuracy = 7.7110449e-05
  estimated relative force accuracy = 5.3550243e-06
  using double precision KISS FFT
  3d grid and FFT values/proc = 15625 5832
Generated 0 of 21 mixed pair_coeff terms from geometric mixing rule
Per MPI rank memory allocation (min/avg/max) = 9.773 | 9.773 | 9.773 Mbytes
   Step          Temp          E_pair         E_mol          TotEng         Press     
        16   2398.9059      2.6833491      0.82321387     4.1267288      373.90297    
        17   1545.7427      2.7303305      0.99769413     4.1276305      377.77092    
Loop time of 0.00105077 on 1 procs for 1 steps with 3 atoms

run 1 pre yes post no
PPPM initialization ...
  using 12-bit tables for long-range coulomb (src/kspace.cpp:342)
  G vector (1/distance) = 0.28934131
  grid = 18 18 18
  stencil order = 5
  estimated absolute RMS force accuracy = 7.7110449e-05
  estimated relative force accuracy = 5.3550243e-06
  using double precision KISS FFT
  3d grid and FFT values/proc = 15625 5832
Generated 0 of 21 mixed pair_coeff terms from geometric mixing rule
Per MPI rank memory allocation (min/avg/max) = 9.773 | 9.773 | 9.773 Mbytes
   Step          Temp          E_pair         E_mol          TotEng         Press     
        17   1545.7427      2.7303305      0.99769413     4.1276305      377.77092    
        18   848.74453      2.7665882      1.1423567      4.1283626      379.24149    
Loop time of 0.0010958 on 1 procs for 1 steps with 3 atoms

run 1 pre yes post no
PPPM initialization ...
  using 12-bit tables for long-range coulomb (src/kspace.cpp:342)
  G vector (1/distance) = 0.28934131
  grid = 18 18 18
  stencil order = 5
  estimated absolute RMS force accuracy = 7.7110449e-05
  estimated relative force accuracy = 5.3550243e-06
  using double precision KISS FFT
  3d grid and FFT values/proc = 15625 5832
Generated 0 of 21 mixed pair_coeff terms from geometric mixing rule
Per MPI rank memory allocation (min/avg/max) = 9.773 | 9.773 | 9.773 Mbytes
   Step          Temp          E_pair         E_mol          TotEng         Press     
        18   848.74453      2.7665882      1.1423567      4.1283626      379.24149    
        19   352.79086      2.7920832      1.2455884      4.1288752      379.47603    
Loop time of 0.00131872 on 1 procs for 1 steps with 3 atoms

run 1 pre yes post no
PPPM initialization ...
  using 12-bit tables for long-range coulomb (src/kspace.cpp:342)
  G vector (1/distance) = 0.28934131
  grid = 18 18 18
  stencil order = 5
  estimated absolute RMS force accuracy = 7.7110449e-05
  estimated relative force accuracy = 5.3550243e-06
  using double precision KISS FFT
  3d grid and FFT values/proc = 15625 5832
Generated 0 of 21 mixed pair_coeff terms from geometric mixing rule
Per MPI rank memory allocation (min/avg/max) = 9.773 | 9.773 | 9.773 Mbytes
   Step          Temp          E_pair         E_mol          TotEng         Press     
        19   352.79086      2.7920832      1.2455884      4.1288752      379.47603    
        20   89.302491      2.8068311      1.2992156      4.1291332      379.30525    
Loop time of 0.00165871 on 1 procs for 1 steps with 3 atoms

run 1 pre yes post no
PPPM initialization ...
  using 12-bit tables for long-range coulomb (src/kspace.cpp:342)
  G vector (1/distance) = 0.28934131
  grid = 18 18 18
  stencil order = 5
  estimated absolute RMS force accuracy = 7.7110449e-05
  estimated relative force accuracy = 5.3550243e-06
  using double precision KISS FFT
  3d grid and FFT values/proc = 15625 5832
Generated 0 of 21 mixed pair_coeff terms from geometric mixing rule
Per MPI rank memory allocation (min/avg/max) = 9.773 | 9.773 | 9.773 Mbytes
   Step          Temp          E_pair         E_mol          TotEng         Press     
        20   89.302491      2.8068311      1.2992156      4.1291332      379.30525    
        21   74.121731      2.8108947      1.2990634      4.1291201      379.15958    
Loop time of 0.00120741 on 1 procs for 1 steps with 3 atoms

run 1 pre yes post no
PPPM initialization ...
  using 12-bit tables for long-range coulomb (src/kspace.cpp:342)
  G vector (1/distance) = 0.28934131
  grid = 18 18 18
  stencil order = 5
  estimated absolute RMS force accuracy = 7.7110449e-05
  estimated relative force accuracy = 5.3550243e-06
  using double precision KISS FFT
  3d grid and FFT values/proc = 15625 5832
Generated 0 of 21 mixed pair_coeff terms from geometric mixing rule
Per MPI rank memory allocation (min/avg/max) = 9.773 | 9.773 | 9.773 Mbytes
   Step          Temp          E_pair         E_mol          TotEng         Press     
        21   74.121731      2.8108947      1.2990634      4.1291201      379.15958    
        22   306.46104      2.8043794      1.2452323      4.1288381      379.03406    
Loop time of 0.00112861 on 1 procs for 1 steps with 3 atoms

run 1 pre yes post no
PPPM initialization ...
  using 12-bit tables for long-range coulomb (src/kspace.cpp:342)
  G vector (1/distance) = 0.28934131
  grid = 18 18 18
  stencil order = 5
  estimated absolute RMS force accuracy = 7.7110449e-05
  estimated relative force accuracy = 5.3550243e-06
  using double precision KISS FFT
  3d grid and FFT values/proc = 15625 5832
Generated 0 of 21 mixed pair_coeff terms from geometric mixing rule
Per MPI rank memory allocation (min/avg/max) = 9.773 | 9.773 | 9.773 Mbytes
   Step          Temp          E_pair         E_mol          TotEng         Press     
        22   306.46104      2.8043794      1.2452323      4.1288381      379.03406    
        23   768.98956      2.7874306      1.1420762      4.1283062      378.49072    
Loop time of 0.00112478 on 1 procs for 1 steps with 3 atoms

run 1 pre yes post no
PPPM initialization ...
  using 12-bit tables for long-range coulomb (src/kspace.cpp:342)
  G vector (1/distance) = 0.28934131
  grid = 18 18 18
  stencil order = 5
  estimated absolute RMS force accuracy = 7.7110449e-05
  estimated relative force accuracy = 5.3550243e-06
  using double precision KISS FFT
  3d grid and FFT values/proc = 15625 5832
Generated 0 of 21 mixed pair_coeff terms from geometric mixing rule
Per MPI rank memory allocation (min/avg/max) = 9.773 | 9.773 | 9.773 Mbytes
   Step          Temp          E_pair         E_mol          TotEng         Press     
        23   768.98956      2.7874306      1.1420762      4.1283062      378.49072    
        24   1429.0473      2.7602419      0.99788222     4.1275619      376.69794    
Loop time of 0.0011532 on 1 procs for 1 steps with 3 atoms

run 1 pre yes post no
PPPM initialization ...
  using 12-bit tables for long-range coulomb (src/kspace.cpp:342)
  G vector (1/distance) = 0.28934131
  grid = 18 18 18
  stencil order = 5
  estimated absolute RMS force accuracy = 7.7110449e-05
  estimated relative force accuracy = 5.3550243e-06
  using double precision KISS FFT
  3d grid and FFT values/proc = 15625 5832
Generated 0 of 21 mixed pair_coeff terms from geometric mixing rule
Per MPI rank memory allocation (min/avg/max) = 9.773 | 9.773 | 9.773 Mbytes
   Step          Temp          E_pair         E_mol          TotEng         Press     
        24   1429.0473      2.7602419      0.99788222     4.1275619      376.69794    
        25   2240.8993      2.7230603      0.82427811     4.1266563      372.50358    
Loop time of 0.00107945 on 1 procs for 1 steps with 3 atoms

run 1 pre yes post no
PPPM initialization ...
  using 12-bit tables for long-range coulomb (src/kspace.cpp:342)
  G vector (1/distance) = 0.28934131
  grid = 18 18 18
  stencil order = 5
  estimated absolute RMS force accuracy = 7.7110449e-05
  estimated relative force accuracy = 5.3550243e-06
  using double precision KISS FFT
  3d grid and FFT values/proc = 15625 5832
Generated 0 of 21 mixed pair_coeff terms from geometric mixing rule
Per MPI rank memory allocation (min/avg/max) = 9.773 | 9.773 | 9.773 Mbytes
   Step          Temp          E_pair         E_mol          TotEng         Press     
        25   2240.8993      2.7230603      0.82427811     4.1266563      372.50358    
        26   3148.8729      2.6761972      0.63540608     4.1256508      364.53698    
Loop time of 0.00112359 on 1 procs for 1 steps with 3 atoms

run 1 pre yes post no
PPPM initialization ...
  using 12-bit tables for long-range coulomb (src/kspace.cpp:342)
  G vector (1/distance) = 0.28934131
  grid = 18 18 18
  stencil order = 5
  estimated absolute RMS force accuracy = 7.7110449e-05
  estimated relative force accuracy = 5.3550243e-06
  using double precision KISS FFT
  3d grid and FFT values/proc = 15625 5832
Generated 0 of 21 mixed pair_coeff terms from geometric mixing rule
Per MPI rank memory allocation (min/avg/max) = 9.773 | 9.773 | 9.773 Mbytes
   Step          Temp          E_pair         E_mol          TotEng         Press     
        26   3148.8729      2.6761972      0.63540608     4.1256508      364.53698    
        27   4091.1609      2.6200452      0.44692152     4.1246148      351.33215    
Loop time of 0.00109096 on 1 procs for 1 steps with 3 atoms

run 1 pre yes post no
PPPM initialization ...
  using 12-bit tables for long-range coulomb (src/kspace.cpp:342)
  G vector (1/distance) = 0.28934131
  grid = 18 18 18
  stencil order = 5
  estimated absolute RMS force accuracy = 7.7110449e-05
  estimated relative force accuracy = 5.3550243e-06
  using double precision KISS FFT
  3d grid and FFT values/proc = 15625 5832
Generated 0 of 21 mixed pair_coeff terms from geometric mixing rule
Per MPI rank memory allocation (min/avg/max) = 9.773 | 9.773 | 9.773 Mbytes
   Step          Temp          E_pair         E_mol          TotEng         Press     
        27   4091.1609      2.6200452      0.44692152     4.1246148      351.33215    
        28   5004.0295      2.5550913      0.27488408     4.1236185      331.46357    
Loop time of 0.00108277 on 1 procs for 1 steps with 3 atoms

run 1 pre yes post no
PPPM initialization ...
  using 12-bit tables for long-range coulomb (src/kspace.cpp:342)
  G vector (1/distance) = 0.28934131
  grid = 18 18 18
  stencil order = 5
  estimated absolute RMS force accuracy = 7.7110449e-05
  estimated relative force accuracy = 5.3550243e-06
  using double precision KISS FFT
  3d grid and FFT values/proc = 15625 5832
Generated 0 of 21 mixed pair_coeff terms from geometric mixing rule
Per MPI rank memory allocation (min/avg/max) = 9.773 | 9.773 | 9.773 Mbytes
   Step          Temp          E_pair         E_mol          TotEng         Press     
        28   5004.0295      2.5550913      0.27488408     4.1236185      331.46357    
        29   5826.1451      2.4819355      0.13461687     4.1227291      303.68472    
Loop time of 0.00124129 on 1 procs for 1 steps with 3 atoms

run 1 pre yes post no
PPPM initialization ...
  using 12-bit tables for long-range coulomb (src/kspace.cpp:342)
  G vector (1/distance) = 0.28934131
  grid = 18 18 18
  stencil order = 5
  estimated absolute RMS force accuracy = 7.7110449e-05
  estimated relative force accuracy = 5.3550243e-06
  using double precision KISS FFT
  3d grid and FFT values/proc = 15625 5832
Generated 0 of 21 mixed pair_coeff terms from geometric mixing rule
Per MPI rank memory allocation (min/avg/max) = 9.773 | 9.773 | 9.773 Mbytes
   Step          Temp          E_pair         E_mol          TotEng         Press     
        29   5826.1451      2.4819355      0.13461687     4.1227291      303.68472    
        30   6502.7244      2.4013081      0.039611474    4.1220057      267.05946    
Loop time of 0.00419442 on 1 procs for 1 steps with 3 atoms

run 1 pre yes post no
PPPM initialization ...
  using 12-bit tables for long-range coulomb (src/kspace.cpp:342)
  G vector (1/distance) = 0.28934131
  grid = 18 18 18
  stencil order = 5
  estimated absolute RMS force accuracy = 7.7110449e-05
  estimated relative force accuracy = 5.3550243e-06
  using double precision KISS FFT
  3d grid and FFT values/proc = 15625 5832
Generated 0 of 21 mixed pair_coeff terms from geometric mixing rule
Per MPI rank memory allocation (min/avg/max) = 9.773 | 9.773 | 9.773 Mbytes
   Step          Temp          E_pair         E_mol          TotEng         Press     
        30   6502.7244      2.4013081      0.039611474    4.1220057      267.05946    
        31   6989.2264      2.3140883      0.00055328367  4.1214984      221.07658    
Loop time of 0.00397905 on 1 procs for 1 steps with 3 atoms

run 1 pre yes post no
PPPM initialization ...
  using 12-bit tables for long-range coulomb (src/kspace.cpp:342)
  G vector (1/distance) = 0.28934131
  grid = 18 18 18
  stencil order = 5
  estimated absolute RMS force accuracy = 7.7110449e-05
  estimated relative force accuracy = 5.3550243e-06
  using double precision KISS FFT
  3d grid and FFT values/proc = 15625 5832
Generated 0 of 21 mixed pair_coeff terms from geometric mixing rule
Per MPI rank memory allocation (min/avg/max) = 9.773 | 9.773 | 9.773 Mbytes
   Step          Temp          E_pair         E_mol          TotEng         Press     
        31   6989.2264      2.3140883      0.00055328367  4.1214984      221.07658    
        32   7254.3386      2.2213122      0.024533547    4.1212395      165.73861    
Loop time of 0.00342962 on 1 procs for 1 steps with 3 atoms

run 1 pre yes post no
PPPM initialization ...
  using 12-bit tables for long-range coulomb (src/kspace.cpp:342)
  G vector (1/distance) = 0.28934131
  grid = 18 18 18
  stencil order = 5
  estimated absolute RMS force accuracy = 7.7110449e-05
  estimated relative force accuracy = 5.3550243e-06
  using double precision KISS FFT
  3d grid and FFT values/proc = 15625 5832
Generated 0 of 21 mixed pair_coeff terms from geometric mixing rule
Per MPI rank memory allocation (min/avg/max) = 9.773 | 9.773 | 9.773 Mbytes
   Step          Temp          E_pair         E_mol          TotEng         Press     
        32   7254.3386      2.2213122      0.024533547    4.1212395      165.73861    
        33   7282.0616      2.1241843      0.11450175     4.1212467      101.61847    
Loop time of 0.00372105 on 1 procs for 1 steps with 3 atoms

run 1 pre yes post no
PPPM initialization ...
  using 12-bit tables for long-range coulomb (src/kspace.cpp:342)
  G vector (1/distance) = 0.28934131
  grid = 18 18 18
  stencil order = 5
  estimated absolute RMS force accuracy = 7.7110449e-05
  estimated relative force accuracy = 5.3550243e-06
  using double precision KISS FFT
  3d grid and FFT values/proc = 15625 5832
Generated 0 of 21 mixed pair_coeff terms from geometric mixing rule
Per MPI rank memory allocation (min/avg/max) = 9.773 | 9.773 | 9.773 Mbytes
   Step          Temp          E_pair         E_mol          TotEng         Press     
        33   7282.0616      2.1241843      0.11450175     4.1212467      101.61847    
        34   7072.7792      2.024074       0.26899571     4.1215266      29.878658    
Loop time of 0.00344572 on 1 procs for 1 steps with 3 atoms

run 1 pre yes post no
PPPM initialization ...
  using 12-bit tables for long-range coulomb (src/kspace.cpp:342)
  G vector (1/distance) = 0.28934131
  grid = 18 18 18
  stencil order = 5
  estimated absolute RMS force accuracy = 7.7110449e-05
  estimated relative force accuracy = 5.3550243e-06
  using double precision KISS FFT
  3d grid and FFT values/proc = 15625 5832
Generated 0 of 21 mixed pair_coeff terms from geometric mixing rule
Per MPI rank memory allocation (min/avg/max) = 9.773 | 9.773 | 9.773 Mbytes
   Step          Temp          E_pair         E_mol          TotEng         Press     
        34   7072.7792      2.024074       0.26899571     4.1215266      29.878658    
        35   6643.421       1.9225069      0.48216873     4.1221347     -47.746827    
Loop time of 0.00290663 on 1 procs for 1 steps with 3 atoms

run 1 pre yes post no
PPPM initialization ...
  using 12-bit tables for long-range coulomb (src/kspace.cpp:342)
  G vector (1/distance) = 0.28934131
  grid = 18 18 18
  stencil order = 5
  estimated absolute RMS force accuracy = 7.7110449e-05
  estimated relative force accuracy = 5.3550243e-06
  using double precision KISS FFT
  3d grid and FFT values/proc = 15625 5832
Generated 0 of 21 mixed pair_coeff terms from geometric mixing rule
Per MPI rank memory allocation (min/avg/max) = 9.773 | 9.773 | 9.773 Mbytes
   Step          Temp          E_pair         E_mol          TotEng         Press     
        35   6643.421       1.9225069      0.48216873     4.1221347     -47.746827    
        36   6027.4053      1.8211333      0.74412155     4.1234614     -128.99889    
Loop time of 0.00294496 on 1 procs for 1 steps with 3 atoms

run 1 pre yes post no
PPPM initialization ...
  using 12-bit tables for long-range coulomb (src/kspace.cpp:342)
  G vector (1/distance) = 0.28934131
  grid = 18 18 18
  stencil order = 5
  estimated absolute RMS force accuracy = 7.7110449e-05
  estimated relative force accuracy = 5.3550243e-06
  using double precision KISS FFT
  3d grid and FFT values/proc = 15625 5832
Generated 0 of 21 mixed pair_coeff terms from geometric mixing rule
Per MPI rank memory allocation (min/avg/max) = 9.773 | 9.773 | 9.773 Mbytes
   Step          Temp          E_pair         E_mol          TotEng         Press     
        36   6027.4053      1.8211333      0.74412155     4.1234614     -128.99889    
        37   5275.658       1.7216708      1.0415695      4.127105      -211.15434    
Loop time of 0.0028022 on 1 procs for 1 steps with 3 atoms

run 1 pre yes post no
PPPM initialization ...
  using 12-bit tables for long-range coulomb (src/kspace.cpp:342)
  G vector (1/distance) = 0.28934131
  grid = 18 18 18
  stencil order = 5
  estimated absolute RMS force accuracy = 7.7110449e-05
  estimated relative force accuracy = 5.3550243e-06
  using double precision KISS FFT
  3d grid and FFT values/proc = 15625 5832
Generated 0 of 21 mixed pair_coeff terms from geometric mixing rule
Per MPI rank memory allocation (min/avg/max) = 9.773 | 9.773 | 9.773 Mbytes
   Step          Temp          E_pair         E_mol          TotEng         Press     
        37   5275.658       1.7216708      1.0415695      4.127105      -211.15434    
        38   4458.2027      1.6257689      1.3589717      4.1372764     -291.13359    
Loop time of 0.00325888 on 1 procs for 1 steps with 3 atoms

run 1 pre yes post no
PPPM initialization ...
  using 12-bit tables for long-range coulomb (src/kspace.cpp:342)
  G vector (1/distance) = 0.28934131
  grid = 18 18 18
  stencil order = 5
  estimated absolute RMS force accuracy = 7.7110449e-05
  estimated relative force accuracy = 5.3550243e-06
  using double precision KISS FFT
  3d grid and FFT values/proc = 15625 5832
Generated 0 of 21 mixed pair_coeff terms from geometric mixing rule
Per MPI rank memory allocation (min/avg/max) = 9.773 | 9.773 | 9.773 Mbytes
   Step          Temp          E_pair         E_mol          TotEng         Press     
        38   4458.2027      1.6257689      1.3589717      4.1372764     -291.13359    
        39   3660.6226      1.5347678      1.680313       4.1614261     -365.77438    
Loop time of 0.00298723 on 1 procs for 1 steps with 3 atoms

run 1 pre yes post no
PPPM initialization ...
  using 12-bit tables for long-range coulomb (src/kspace.cpp:342)
  G vector (1/distance) = 0.28934131
  grid = 18 18 18
  stencil order = 5
  estimated absolute RMS force accuracy = 7.7110449e-05
  estimated relative force accuracy = 5.3550243e-06
  using double precision KISS FFT
  3d grid and FFT values/proc = 15625 5832
Generated 0 of 21 mixed pair_coeff terms from geometric mixing rule
Per MPI rank memory allocation (min/avg/max) = 9.773 | 9.773 | 9.773 Mbytes
   Step          Temp          E_pair         E_mol          TotEng         Press     
        39   3660.6226      1.5347678      1.680313       4.1614261     -365.77438    
        40   2969.4486      1.4493783      1.9914504      4.2084914     -432.3411     
Loop time of 0.00320843 on 1 procs for 1 steps with 3 atoms

run 1 pre yes post no
PPPM initialization ...
  using 12-bit tables for long-range coulomb (src/kspace.cpp:342)
  G vector (1/distance) = 0.28934131
  grid = 18 18 18
  stencil order = 5
  estimated absolute RMS force accuracy = 7.7110449e-05
  estimated relative force accuracy = 5.3550243e-06
  using double precision KISS FFT
  3d grid and FFT values/proc = 15625 5832
Generated 0 of 21 mixed pair_coeff terms from geometric mixing rule
Per MPI rank memory allocation (min/avg/max) = 9.773 | 9.773 | 9.773 Mbytes
   Step          Temp          E_pair         E_mol          TotEng         Press     
        40   2969.4486      1.4493783      1.9914504      4.2084914     -432.3411     
        41   2451.7488      1.3694718      2.2823386      4.2856372     -489.07007    
Loop time of 0.00372485 on 1 procs for 1 steps with 3 atoms

run 1 pre yes post no
PPPM initialization ...
  using 12-bit tables for long-range coulomb (src/kspace.cpp:342)
  G vector (1/distance) = 0.28934131
  grid = 18 18 18
  stencil order = 5
  estimated absolute RMS force accuracy = 7.7110449e-05
  estimated relative force accuracy = 5.3550243e-06
  using double precision KISS FFT
  3d grid and FFT values/proc = 15625 5832
Generated 0 of 21 mixed pair_coeff terms from geometric mixing rule
Per MPI rank memory allocation (min/avg/max) = 9.773 | 9.773 | 9.773 Mbytes
   Step          Temp          E_pair         E_mol          TotEng         Press     
        41   2451.7488      1.3694718      2.2823386      4.2856372     -489.07007    
        42   2142.6818      1.2941097      2.5482648      4.3963012     -535.4154     
Loop time of 0.0028408 on 1 procs for 1 steps with 3 atoms

run 1 pre yes post no
PPPM initialization ...
  using 12-bit tables for long-range coulomb (src/kspace.cpp:342)
  G vector (1/distance) = 0.28934131
  grid = 18 18 18
  stencil order = 5
  estimated absolute RMS force accuracy = 7.7110449e-05
  estimated relative force accuracy = 5.3550243e-06
  using double precision KISS FFT
  3d grid and FFT values/proc = 15625 5832
Generated 0 of 21 mixed pair_coeff terms from geometric mixing rule
Per MPI rank memory allocation (min/avg/max) = 9.773 | 9.773 | 9.773 Mbytes
   Step          Temp          E_pair         E_mol          TotEng         Press     
        42   2142.6818      1.2941097      2.5482648      4.3963012     -535.4154     
        43   2047.0173      1.2218245      2.7897455      4.5407655     -571.88486    
Loop time of 0.00289028 on 1 procs for 1 steps with 3 atoms

run 1 pre yes post no
PPPM initialization ...
  using 12-bit tables for long-range coulomb (src/kspace.cpp:342)
  G vector (1/distance) = 0.28934131
  grid = 18 18 18
  stencil order = 5
  estimated absolute RMS force accuracy = 7.7110449e-05
  estimated relative force accuracy = 5.3550243e-06
  using double precision KISS FFT
  3d grid and FFT values/proc = 15625 5832
Generated 0 of 21 mixed pair_coeff terms from geometric mixing rule
Per MPI rank memory allocation (min/avg/max) = 9.773 | 9.773 | 9.773 Mbytes
   Step          Temp          E_pair         E_mol          TotEng         Press     
        43   2047.0173      1.2218245      2.7897455      4.5407655     -571.88486    
        44   2148.7382      1.1510612      3.0113968      4.7179504     -599.6314     
Loop time of 0.00299227 on 1 procs for 1 steps with 3 atoms

run 1 pre yes post no
PPPM initialization ...
  using 12-bit tables for long-range coulomb (src/kspace.cpp:342)
  G vector (1/distance) = 0.28934131
  grid = 18 18 18
  stencil order = 5
  estimated absolute RMS force accuracy = 7.7110449e-05
  estimated relative force accuracy = 5.3550243e-06
  using double precision KISS FFT
  3d grid and FFT values/proc = 15625 5832
Generated 0 of 21 mixed pair_coeff terms from geometric mixing rule
Per MPI rank memory allocation (min/avg/max) = 9.773 | 9.773 | 9.773 Mbytes
   Step          Temp          E_pair         E_mol          TotEng         Press     
        44   2148.7382      1.1510612      3.0113968      4.7179504     -599.6314     
        45   2421.2672      1.0806669      3.2204119      4.9270255     -620.01016    
Loop time of 0.00275119 on 1 procs for 1 steps with 3 atoms

run 1 pre yes post no
PPPM initialization ...
  using 12-bit tables for long-range coulomb (src/kspace.cpp:342)
  G vector (1/distance) = 0.28934131
  grid = 18 18 18
  stencil order = 5
  estimated absolute RMS force accuracy = 7.7110449e-05
  estimated relative force accuracy = 5.3550243e-06
  using double precision KISS FFT
  3d grid and FFT values/proc = 15625 5832
Generated 0 of 21 mixed pair_coeff terms from geometric mixing rule
Per MPI rank memory allocation (min/avg/max) = 9.773 | 9.773 | 9.773 Mbytes
   Step          Temp          E_pair         E_mol          TotEng         Press     
        45   2421.2672      1.0806669      3.2204119      4.9270255     -620.01016    
        46   2835.8887      1.0102845      3.425339       5.1687583     -634.21227    
Loop time of 0.00268873 on 1 procs for 1 steps with 3 atoms

run 0 pre yes post no
PPPM initialization ...
  using 12-bit tables for long-range coulomb (src/kspace.cpp:342)
  G vector (1/distance) = 0.28934131
  grid = 18 18 18
  stencil order = 5
  estimated absolute RMS force accuracy = 7.7110449e-05
  estimated relative force accuracy = 5.3550243e-06
  using double precision KISS FFT
  3d grid and FFT values/proc = 15625 5832
Generated 0 of 21 mixed pair_coeff terms from geometric mixing rule
Per MPI rank memory allocation (min/avg/max) = 9.773 | 9.773 | 9.773 Mbytes
   Step          Temp          E_pair         E_mol          TotEng         Press     
        46   2835.8887      1.0102845      3.425339       5.1687583     -634.21227    
Loop time of 8.41e-07 on 1 procs for 0 steps with 3 atoms

run 0 pre yes post no
PPPM initialization ...
  using 12-bit tables for long-range coulomb (src/kspace.cpp:342)
  G vector (1/distance) = 0.28934131
  grid = 18 18 18
  stencil order = 5
  estimated absolute RMS force accuracy = 7.7110449e-05
  estimated relative force accuracy = 5.3550243e-06
  using double precision KISS FFT
  3d grid and FFT values/proc = 15625 5832
Generated 0 of 21 mixed pair_coeff terms from geometric mixing rule
Per MPI rank memory allocation (min/avg/max) = 9.773 | 9.773 | 9.773 Mbytes
   Step          Temp          E_pair         E_mol          TotEng         Press     
        46   2835.8887      1.0102845      3.425339       5.1687583     -634.21227    
Loop time of 6.51e-07 on 1 procs for 0 steps with 3 atoms

clear
OMP_NUM_THREADS environment is not set. Defaulting to 1 thread. (src/comm.cpp:98)
  using 1 OpenMP thread(s) per MPI task
units metal
atom_style full
boundary p p p
read_data /tmp/mustard.1db41283f1a74d1b97c38b9120794fbd
Reading data file ...
  triclinic box = (0 0 0) to (25.319 25.319 25.319) with tilt (0 0 0)
  1 by 1 by 1 MPI processor grid
  reading atoms ...
  3 atoms
  reading velocities ...
  3 velocities
  scanning bonds ...
  1 = max bonds/atom
  reading bonds ...
  1 bonds
Finding 1-2 1-3 1-4 neighbors ...
  special bond factors lj:    0        0        0       
  special bond factors coul:  0        0        0       
     1 = max # of 1-2 neighbors
     0 = max # of 1-3 neighbors
     0 = max # of 1-4 neighbors
     1 = max # of special neighbors
  special bonds CPU = 0.000 seconds
  read_data CPU = 0.001 seconds

change_box all triclinic
Changing box ...
  triclinic box = (0 0 0) to (25.319 25.319 25.319) with tilt (0 0 0)
include ff.lmp
##############################################################################################
#### Atoms' types - mass - charge
##############################################################################################
#@ 7   atom types

variable Ba  equal 1
variable Zr  equal 2
variable  Y  equal 3
variable O1  equal 4
variable O2  equal 5
variable O3  equal 6
variable H1  equal 7

##############################################################################################
#### Atoms' masses
##############################################################################################

mass  ${Ba}   137.327
mass  1   137.327
mass  ${Zr}    91.224
mass  2    91.224
mass  ${Y}     88.910
mass  3     88.910
mass  ${O1}    100000
mass  4    100000
# mass  ${O1}    15.996
mass  ${O2}    100000
mass  5    100000
# mass  ${O2}    15.996
mass  ${O3}    15.996
mass  6    15.996
mass  ${H1}     1.008
mass  7     1.008

##############################################################################################
#### Atoms' charges
##############################################################################################

set type ${Ba}  charge     2.000000
set type 1  charge     2.000000
Setting atom values ...
  0 settings made for charge
set type ${Zr}  charge     4.000000
set type 2  charge     4.000000
Setting atom values ...
  0 settings made for charge
set type ${Y}   charge     3.000000
set type 3   charge     3.000000
Setting atom values ...
  0 settings made for charge
set type ${O1}  charge    -1.308698
set type 4  charge    -1.308698
Setting atom values ...
  1 settings made for charge
set type ${O2}  charge    -2.000000
set type 5  charge    -2.000000
Setting atom values ...
  1 settings made for charge
set type ${O3}  charge    -2.000000
set type 6  charge    -2.000000
Setting atom values ...
  0 settings made for charge
set type ${H1}  charge     0.308698
set type 7  charge     0.308698
Setting atom values ...
  1 settings made for charge

##############################################################################################
#### Covalent bonds parameters
##############################################################################################
#@  1   bond types

bond_style harmonic
#@ O1 - H1
# bond_coeff   1      11.504000      0.985357
bond_coeff   1      23.008000      0.985357

##############################################################################################
# Pair potentials
##############################################################################################

variable rmin  equal  8.
variable rmax  equal 10.

pair_style hybrid/overlay buck/mdf ${rmin} ${rmax} lennard/mdf ${rmin} ${rmax} coul/long ${rmax}
pair_style hybrid/overlay buck/mdf 8 ${rmax} lennard/mdf ${rmin} ${rmax} coul/long ${rmax}
pair_style hybrid/overlay buck/mdf 8 10 lennard/mdf ${rmin} ${rmax} coul/long ${rmax}
pair_style hybrid/overlay buck/mdf 8 10 lennard/mdf 8 ${rmax} coul/long ${rmax}
pair_style hybrid/overlay buck/mdf 8 10 lennard/mdf 8 10 coul/long ${rmax}
pair_style hybrid/overlay buck/mdf 8 10 lennard/mdf 8 10 coul/long 10

##############################################################################################
# Buckingham interaction potentials
pair_coeff  ${Ba}  ${O1}  buck/mdf   688.21662   0.392014   0.000
pair_coeff  1  ${O1}  buck/mdf   688.21662   0.392014   0.000
pair_coeff  1  4  buck/mdf   688.21662   0.392014   0.000
pair_coeff  ${Ba}  ${O2}  buck/mdf   972.19945   0.392014   0.000
pair_coeff  1  ${O2}  buck/mdf   972.19945   0.392014   0.000
pair_coeff  1  5  buck/mdf   972.19945   0.392014   0.000
pair_coeff  ${Ba}  ${O3}  buck/mdf   972.19945   0.392014   0.000
pair_coeff  1  ${O3}  buck/mdf   972.19945   0.392014   0.000
pair_coeff  1  6  buck/mdf   972.19945   0.392014   0.000

pair_coeff  ${Y}   ${O1}  buck/mdf   2972.3808   0.267317   0.000
pair_coeff  3   ${O1}  buck/mdf   2972.3808   0.267317   0.000
pair_coeff  3   4  buck/mdf   2972.3808   0.267317   0.000
pair_coeff  ${Y}   ${O2}  buck/mdf   4121.8373   0.280386   0.000
pair_coeff  3   ${O2}  buck/mdf   4121.8373   0.280386   0.000
pair_coeff  3   5  buck/mdf   4121.8373   0.280386   0.000
pair_coeff  ${Y}   ${O3}  buck/mdf   4121.8373   0.280386   0.000
pair_coeff  3   ${O3}  buck/mdf   4121.8373   0.280386   0.000
pair_coeff  3   6  buck/mdf   4121.8373   0.280386   0.000

pair_coeff  ${Zr}  ${O1}  buck/mdf   2195.8712   0.298760   0.000
pair_coeff  2  ${O1}  buck/mdf   2195.8712   0.298760   0.000
pair_coeff  2  4  buck/mdf   2195.8712   0.298760   0.000
pair_coeff  ${Zr}  ${O2}  buck/mdf   3250.8545   0.298760   0.000
pair_coeff  2  ${O2}  buck/mdf   3250.8545   0.298760   0.000
pair_coeff  2  5  buck/mdf   3250.8545   0.298760   0.000
pair_coeff  ${Zr}  ${O3}  buck/mdf   3250.8545   0.298760   0.000
pair_coeff  2  ${O3}  buck/mdf   3250.8545   0.298760   0.000
pair_coeff  2  6  buck/mdf   3250.8545   0.298760   0.000

pair_coeff  ${O1}  ${O1}  buck/mdf   22764.000   0.149000   0.000
pair_coeff  4  ${O1}  buck/mdf   22764.000   0.149000   0.000
pair_coeff  4  4  buck/mdf   22764.000   0.149000   0.000
pair_coeff  ${O1}  ${O2}  buck/mdf   22764.000   0.149000   0.000
pair_coeff  4  ${O2}  buck/mdf   22764.000   0.149000   0.000
pair_coeff  4  5  buck/mdf   22764.000   0.149000   0.000
pair_coeff  ${O1}  ${O3}  buck/mdf   22764.000   0.149000   0.000
pair_coeff  4  ${O3}  buck/mdf   22764.000   0.149000   0.000
pair_coeff  4  6  buck/mdf   22764.000   0.149000   0.000

pair_coeff  ${O2}  ${O2}  buck/mdf   22764.000   0.149000   0.000
pair_coeff  5  ${O2}  buck/mdf   22764.000   0.149000   0.000
pair_coeff  5  5  buck/mdf   22764.000   0.149000   0.000
pair_coeff  ${O2}  ${O3}  buck/mdf   22764.000   0.149000   0.000
pair_coeff  5  ${O3}  buck/mdf   22764.000   0.149000   0.000
pair_coeff  5  6  buck/mdf   22764.000   0.149000   0.000

pair_coeff  ${O3}  ${O3}  buck/mdf   22764.000   0.149000   0.000
pair_coeff  6  ${O3}  buck/mdf   22764.000   0.149000   0.000
pair_coeff  6  6  buck/mdf   22764.000   0.149000   0.000

##############################################################################################
# 12-6 Lennard-Jones potentials
pair_coeff  ${O1}  ${H1}  lennard/mdf    6.391   0.000
pair_coeff  4  ${H1}  lennard/mdf    6.391   0.000
pair_coeff  4  7  lennard/mdf    6.391   0.000
pair_coeff  ${O2}  ${H1}  lennard/mdf    6.391   0.000
pair_coeff  5  ${H1}  lennard/mdf    6.391   0.000
pair_coeff  5  7  lennard/mdf    6.391   0.000
pair_coeff  ${O3}  ${H1}  lennard/mdf    7.800   0.000
pair_coeff  6  ${H1}  lennard/mdf    7.800   0.000
pair_coeff  6  7  lennard/mdf    7.800   0.000

##############################################################################################
# Coulombic interaction
pair_coeff      *      *  coul/long

#########################################################################################################
# Parameters for reciprocal space electrostatics
#########################################################################################################

kspace_style pppm 1.0e-5
kspace_modify fftbench no
fix md all nve
timestep 0.0002

change_box all x final 0.0 25.319 y final 0.0 25.319 z final 0.0 25.319 xy final 0.0 xz final 0.0 yz final 0.0
Changing box ...
  triclinic box = (0 0 0) to (25.319 25.319 25.319) with tilt (0 0 0)
  triclinic box = (0 0 0) to (25.319 25.319 25.319) with tilt (0 0 0)
  triclinic box = (0 0 0) to (25.319 25.319 25.319) with tilt (0 0 0)
  triclinic box = (0 0 0) to (25.319 25.319 25.319) with tilt (0 0 0)
  triclinic box = (0 0 0) to (25.319 25.319 25.319) with tilt (0 0 0)
  triclinic box = (0 0 0) to (25.319 25.319 25.319) with tilt (0 0 0)
fix ux all store/state 1 xu yu zu
fix ext all external pf/callback 1 1
fix_modify ext energy no
fix_modify ext virial no
compute get_pe all pe

run 0 pre yes post no
PPPM initialization ...
WARNING: System is not charge neutral, net charge = -3 (src/kspace.cpp:327)
  using 12-bit tables for long-range coulomb (src/kspace.cpp:342)
  G vector (1/distance) = 0.28934131
  grid = 18 18 18
  stencil order = 5
  estimated absolute RMS force accuracy = 7.7110449e-05
  estimated relative force accuracy = 5.3550243e-06
  using double precision KISS FFT
  3d grid and FFT values/proc = 15625 5832
Generated 0 of 21 mixed pair_coeff terms from geometric mixing rule
Neighbor list info ...
  update: every = 1 steps, delay = 0 steps, check = yes
  max neighbors/atom: 2000, page size: 100000
  master list distance cutoff = 12
  ghost atom cutoff = 12
  binsize = 6, bins = 5 5 5
  3 neighbor lists, perpetual/occasional/extra = 3 0 0
  (1) pair buck/mdf, perpetual, skip from (3)
      attributes: half, newton on
      pair build: skip
      stencil: none
      bin: none
  (2) pair lennard/mdf, perpetual, skip from (3)
      attributes: half, newton on
      pair build: skip
      stencil: none
      bin: none
  (3) pair coul/long, perpetual
      attributes: half, newton on
      pair build: half/bin/newton/tri
      stencil: half/bin/3d/tri
      bin: standard
Per MPI rank memory allocation (min/avg/max) = 9.773 | 9.773 | 9.773 Mbytes
   Step          Temp          E_pair         E_mol          TotEng         Press     
         0   2604.8758      1.1200706      2.8691836      4.6626674     -566.72267    
Loop time of 1.242e-06 on 1 procs for 0 steps with 3 atoms

run 0 pre yes post no
PPPM initialization ...
  using 12-bit tables for long-range coulomb (src/kspace.cpp:342)
  G vector (1/distance) = 0.28934131
  grid = 18 18 18
  stencil order = 5
  estimated absolute RMS force accuracy = 7.7110449e-05
  estimated relative force accuracy = 5.3550243e-06
  using double precision KISS FFT
  3d grid and FFT values/proc = 15625 5832
Generated 0 of 21 mixed pair_coeff terms from geometric mixing rule
Per MPI rank memory allocation (min/avg/max) = 9.773 | 9.773 | 9.773 Mbytes
   Step          Temp          E_pair         E_mol          TotEng         Press     
         0   2604.8758      1.1200706      2.8691836      4.6626674     -566.72267    
Loop time of 4.41e-07 on 1 procs for 0 steps with 3 atoms

run 1 pre yes post no
PPPM initialization ...
  using 12-bit tables for long-range coulomb (src/kspace.cpp:342)
  G vector (1/distance) = 0.28934131
  grid = 18 18 18
  stencil order = 5
  estimated absolute RMS force accuracy = 7.7110449e-05
  estimated relative force accuracy = 5.3550243e-06
  using double precision KISS FFT
  3d grid and FFT values/proc = 15625 5832
Generated 0 of 21 mixed pair_coeff terms from geometric mixing rule
Per MPI rank memory allocation (min/avg/max) = 9.773 | 9.773 | 9.773 Mbytes
   Step          Temp          E_pair         E_mol          TotEng         Press     
         0   2835.8887      1.1200706      2.8691836      4.722389      -562.79251    
         1   3368.3983      1.1607702      2.5168656      4.5484351     -500.86401    
Loop time of 0.00331825 on 1 procs for 1 steps with 3 atoms

run 1 pre yes post no
PPPM initialization ...
  using 12-bit tables for long-range coulomb (src/kspace.cpp:342)
  G vector (1/distance) = 0.28934131
  grid = 18 18 18
  stencil order = 5
  estimated absolute RMS force accuracy = 7.7110449e-05
  estimated relative force accuracy = 5.3550243e-06
  using double precision KISS FFT
  3d grid and FFT values/proc = 15625 5832
Generated 0 of 21 mixed pair_coeff terms from geometric mixing rule
Per MPI rank memory allocation (min/avg/max) = 9.773 | 9.773 | 9.773 Mbytes
   Step          Temp          E_pair         E_mol          TotEng         Press     
         1   3368.3983      1.1607702      2.5168656      4.5484351     -500.86401    
         2   4002.3479      1.2038246      2.1669155      4.4054282     -434.76773    
Loop time of 0.00320183 on 1 procs for 1 steps with 3 atoms

run 1 pre yes post no
PPPM initialization ...
  using 12-bit tables for long-range coulomb (src/kspace.cpp:342)
  G vector (1/distance) = 0.28934131
  grid = 18 18 18
  stencil order = 5
  estimated absolute RMS force accuracy = 7.7110449e-05
  estimated relative force accuracy = 5.3550243e-06
  using double precision KISS FFT
  3d grid and FFT values/proc = 15625 5832
Generated 0 of 21 mixed pair_coeff terms from geometric mixing rule
Per MPI rank memory allocation (min/avg/max) = 9.773 | 9.773 | 9.773 Mbytes
   Step          Temp          E_pair         E_mol          TotEng         Press     
         2   4002.3479      1.2038246      2.1669155      4.4054282     -434.76773    
         3   4725.7801      1.2511621      1.8207869      4.293659      -364.53332    
Loop time of 0.00402614 on 1 procs for 1 steps with 3 atoms

run 1 pre yes post no
PPPM initialization ...
  using 12-bit tables for long-range coulomb (src/kspace.cpp:342)
  G vector (1/distance) = 0.28934131
  grid = 18 18 18
  stencil order = 5
  estimated absolute RMS force accuracy = 7.7110449e-05
  estimated relative force accuracy = 5.3550243e-06
  using double precision KISS FFT
  3d grid and FFT values/proc = 15625 5832
Generated 0 of 21 mixed pair_coeff terms from geometric mixing rule
Per MPI rank memory allocation (min/avg/max) = 9.773 | 9.773 | 9.773 Mbytes
   Step          Temp          E_pair         E_mol          TotEng         Press     
         3   4725.7801      1.2511621      1.8207869      4.293659      -364.53332    
         4   5520.4978      1.3046026      1.4820537      4.213817      -290.41209    
Loop time of 0.0033669 on 1 procs for 1 steps with 3 atoms

run 1 pre yes post no
PPPM initialization ...
  using 12-bit tables for long-range coulomb (src/kspace.cpp:342)
  G vector (1/distance) = 0.28934131
  grid = 18 18 18
  stencil order = 5
  estimated absolute RMS force accuracy = 7.7110449e-05
  estimated relative force accuracy = 5.3550243e-06
  using double precision KISS FFT
  3d grid and FFT values/proc = 15625 5832
Generated 0 of 21 mixed pair_coeff terms from geometric mixing rule
Per MPI rank memory allocation (min/avg/max) = 9.773 | 9.773 | 9.773 Mbytes
   Step          Temp          E_pair         E_mol          TotEng         Press     
         4   5520.4978      1.3046026      1.4820537      4.213817      -290.41209    
         5   6349.0095      1.3654938      1.1570331      4.1638747     -213.25245    
Loop time of 0.00410839 on 1 procs for 1 steps with 3 atoms

run 1 pre yes post no
PPPM initialization ...
  using 12-bit tables for long-range coulomb (src/kspace.cpp:342)
  G vector (1/distance) = 0.28934131
  grid = 18 18 18
  stencil order = 5
  estimated absolute RMS force accuracy = 7.7110449e-05
  estimated relative force accuracy = 5.3550243e-06
  using double precision KISS FFT
  3d grid and FFT values/proc = 15625 5832
Generated 0 of 21 mixed pair_coeff terms from geometric mixing rule
Per MPI rank memory allocation (min/avg/max) = 9.773 | 9.773 | 9.773 Mbytes
   Step          Temp          E_pair         E_mol          TotEng         Press     
         5   6349.0095      1.3654938      1.1570331      4.1638747     -213.25245    
         6   7150.2027      1.4343035      0.85485089     4.1376268     -134.72519    
Loop time of 0.00357001 on 1 procs for 1 steps with 3 atoms

run 1 pre yes post no
PPPM initialization ...
  using 12-bit tables for long-range coulomb (src/kspace.cpp:342)
  G vector (1/distance) = 0.28934131
  grid = 18 18 18
  stencil order = 5
  estimated absolute RMS force accuracy = 7.7110449e-05
  estimated relative force accuracy = 5.3550243e-06
  using double precision KISS FFT
  3d grid and FFT values/proc = 15625 5832
Generated 0 of 21 mixed pair_coeff terms from geometric mixing rule
Per MPI rank memory allocation (min/avg/max) = 9.773 | 9.773 | 9.773 Mbytes
   Step          Temp          E_pair         E_mol          TotEng         Press     
         6   7150.2027      1.4343035      0.85485089     4.1376268     -134.72519    
         7   7851.1731      1.5104593      0.5862818      4.1264287     -57.14164     
Loop time of 0.00418689 on 1 procs for 1 steps with 3 atoms

run 1 pre yes post no
PPPM initialization ...
  using 12-bit tables for long-range coulomb (src/kspace.cpp:342)
  G vector (1/distance) = 0.28934131
  grid = 18 18 18
  stencil order = 5
  estimated absolute RMS force accuracy = 7.7110449e-05
  estimated relative force accuracy = 5.3550243e-06
  using double precision KISS FFT
  3d grid and FFT values/proc = 15625 5832
Generated 0 of 21 mixed pair_coeff terms from geometric mixing rule
Per MPI rank memory allocation (min/avg/max) = 9.773 | 9.773 | 9.773 Mbytes
   Step          Temp          E_pair         E_mol          TotEng         Press     
         7   7851.1731      1.5104593      0.5862818      4.1264287     -57.14164     
         8   8388.0524      1.5925009      0.36167086     4.1226535      17.046388    
Loop time of 0.00315728 on 1 procs for 1 steps with 3 atoms

run 1 pre yes post no
PPPM initialization ...
  using 12-bit tables for long-range coulomb (src/kspace.cpp:342)
  G vector (1/distance) = 0.28934131
  grid = 18 18 18
  stencil order = 5
  estimated absolute RMS force accuracy = 7.7110449e-05
  estimated relative force accuracy = 5.3550243e-06
  using double precision KISS FFT
  3d grid and FFT values/proc = 15625 5832
Generated 0 of 21 mixed pair_coeff terms from geometric mixing rule
Per MPI rank memory allocation (min/avg/max) = 9.773 | 9.773 | 9.773 Mbytes
   Step          Temp          E_pair         E_mol          TotEng         Press     
         8   8388.0524      1.5925009      0.36167086     4.1226535      17.046388    
         9   8720.4447      1.6784182      0.18890593     4.1217361      85.714246    
Loop time of 0.00361774 on 1 procs for 1 steps with 3 atoms

run 1 pre yes post no
PPPM initialization ...
  using 12-bit tables for long-range coulomb (src/kspace.cpp:342)
  G vector (1/distance) = 0.28934131
  grid = 18 18 18
  stencil order = 5
  estimated absolute RMS force accuracy = 7.7110449e-05
  estimated relative force accuracy = 5.3550243e-06
  using double precision KISS FFT
  3d grid and FFT values/proc = 15625 5832
Generated 0 of 21 mixed pair_coeff terms from geometric mixing rule
Per MPI rank memory allocation (min/avg/max) = 9.773 | 9.773 | 9.773 Mbytes
   Step          Temp          E_pair         E_mol          TotEng         Press     
         9   8720.4447      1.6784182      0.18890593     4.1217361      85.714246    
        10   8833.5313      1.7659816      0.0721447      4.1217734      147.28649    
Loop time of 0.00279611 on 1 procs for 1 steps with 3 atoms

run 1 pre yes post no
PPPM initialization ...
  using 12-bit tables for long-range coulomb (src/kspace.cpp:342)
  G vector (1/distance) = 0.28934131
  grid = 18 18 18
  stencil order = 5
  estimated absolute RMS force accuracy = 7.7110449e-05
  estimated relative force accuracy = 5.3550243e-06
  using double precision KISS FFT
  3d grid and FFT values/proc = 15625 5832
Generated 0 of 21 mixed pair_coeff terms from geometric mixing rule
Per MPI rank memory allocation (min/avg/max) = 9.773 | 9.773 | 9.773 Mbytes
   Step          Temp          E_pair         E_mol          TotEng         Press     
        10   8833.5313      1.7659816      0.0721447      4.1217734      147.28649    
        11   8733.821       1.8529833      0.011344207    4.1221975      200.77335    
Loop time of 0.00283351 on 1 procs for 1 steps with 3 atoms

run 1 pre yes post no
PPPM initialization ...
  using 12-bit tables for long-range coulomb (src/kspace.cpp:342)
  G vector (1/distance) = 0.28934131
  grid = 18 18 18
  stencil order = 5
  estimated absolute RMS force accuracy = 7.7110449e-05
  estimated relative force accuracy = 5.3550243e-06
  using double precision KISS FFT
  3d grid and FFT values/proc = 15625 5832
Generated 0 of 21 mixed pair_coeff terms from geometric mixing rule
Per MPI rank memory allocation (min/avg/max) = 9.773 | 9.773 | 9.773 Mbytes
   Step          Temp          E_pair         E_mol          TotEng         Press     
        11   8733.821       1.8529833      0.011344207    4.1221975      200.77335    
        12   8444.7467      1.9373728      0.0023484929   4.1228597      245.74177    
Loop time of 0.00367522 on 1 procs for 1 steps with 3 atoms

run 1 pre yes post no
PPPM initialization ...
  using 12-bit tables for long-range coulomb (src/kspace.cpp:342)
  G vector (1/distance) = 0.28934131
  grid = 18 18 18
  stencil order = 5
  estimated absolute RMS force accuracy = 7.7110449e-05
  estimated relative force accuracy = 5.3550243e-06
  using double precision KISS FFT
  3d grid and FFT values/proc = 15625 5832
Generated 0 of 21 mixed pair_coeff terms from geometric mixing rule
Per MPI rank memory allocation (min/avg/max) = 9.773 | 9.773 | 9.773 Mbytes
   Step          Temp          E_pair         E_mol          TotEng         Press     
        12   8444.7467      1.9373728      0.0023484929   4.1228597      245.74177    
        13   8003.2562      2.0173396      0.037350214    4.1236939      282.26456    
Loop time of 0.00380461 on 1 procs for 1 steps with 3 atoms

run 1 pre yes post no
PPPM initialization ...
  using 12-bit tables for long-range coulomb (src/kspace.cpp:342)
  G vector (1/distance) = 0.28934131
  grid = 18 18 18
  stencil order = 5
  estimated absolute RMS force accuracy = 7.7110449e-05
  estimated relative force accuracy = 5.3550243e-06
  using double precision KISS FFT
  3d grid and FFT values/proc = 15625 5832
Generated 0 of 21 mixed pair_coeff terms from geometric mixing rule
Per MPI rank memory allocation (min/avg/max) = 9.773 | 9.773 | 9.773 Mbytes
   Step          Temp          E_pair         E_mol          TotEng         Press     
        13   8003.2562      2.0173396      0.037350214    4.1236939      282.26456    
        14   7456.4554      2.0913495      0.10563819     4.1246327      310.84338    
Loop time of 0.00409189 on 1 procs for 1 steps with 3 atoms

run 1 pre yes post no
PPPM initialization ...
  using 12-bit tables for long-range coulomb (src/kspace.cpp:342)
  G vector (1/distance) = 0.28934131
  grid = 18 18 18
  stencil order = 5
  estimated absolute RMS force accuracy = 7.7110449e-05
  estimated relative force accuracy = 5.3550243e-06
  using double precision KISS FFT
  3d grid and FFT values/proc = 15625 5832
Generated 0 of 21 mixed pair_coeff terms from geometric mixing rule
Per MPI rank memory allocation (min/avg/max) = 9.773 | 9.773 | 9.773 Mbytes
   Step          Temp          E_pair         E_mol          TotEng         Press     
        14   7456.4554      2.0913495      0.10563819     4.1246327      310.84338    
        15   6857.7518      2.1581651      0.19457071     4.1256038      332.30397    
Loop time of 0.00335645 on 1 procs for 1 steps with 3 atoms

run 1 pre yes post no
PPPM initialization ...
  using 12-bit tables for long-range coulomb (src/kspace.cpp:342)
  G vector (1/distance) = 0.28934131
  grid = 18 18 18
  stencil order = 5
  estimated absolute RMS force accuracy = 7.7110449e-05
  estimated relative force accuracy = 5.3550243e-06
  using double precision KISS FFT
  3d grid and FFT values/proc = 15625 5832
Generated 0 of 21 mixed pair_coeff terms from geometric mixing rule
Per MPI rank memory allocation (min/avg/max) = 9.773 | 9.773 | 9.773 Mbytes
   Step          Temp          E_pair         E_mol          TotEng         Press     
        15   6857.7518      2.1581651      0.19457071     4.1256038      332.30397    
        16   6262.513       2.2168348      0.29070568     4.1265272      347.66878    
Loop time of 0.00386861 on 1 procs for 1 steps with 3 atoms

run 1 pre yes post no
PPPM initialization ...
  using 12-bit tables for long-range coulomb (src/kspace.cpp:342)
  G vector (1/distance) = 0.28934131
  grid = 18 18 18
  stencil order = 5
  estimated absolute RMS force accuracy = 7.7110449e-05
  estimated relative force accuracy = 5.3550243e-06
  using double precision KISS FFT
  3d grid and FFT values/proc = 15625 5832
Generated 0 of 21 mixed pair_coeff terms from geometric mixing rule
Per MPI rank memory allocation (min/avg/max) = 9.773 | 9.773 | 9.773 Mbytes
   Step          Temp          E_pair         E_mol          TotEng         Press     
        16   6262.513       2.2168348      0.29070568     4.1265272      347.66878    
        17   5723.5008      2.2666846      0.38100199     4.1273277      358.01931    
Loop time of 0.00396358 on 1 procs for 1 steps with 3 atoms

run 1 pre yes post no
PPPM initialization ...
  using 12-bit tables for long-range coulomb (src/kspace.cpp:342)
  G vector (1/distance) = 0.28934131
  grid = 18 18 18
  stencil order = 5
  estimated absolute RMS force accuracy = 7.7110449e-05
  estimated relative force accuracy = 5.3550243e-06
  using double precision KISS FFT
  3d grid and FFT values/proc = 15625 5832
Generated 0 of 21 mixed pair_coeff terms from geometric mixing rule
Per MPI rank memory allocation (min/avg/max) = 9.773 | 9.773 | 9.773 Mbytes
   Step          Temp          E_pair         E_mol          TotEng         Press     
        17   5723.5008      2.2666846      0.38100199     4.1273277      358.01931    
        18   5286.4423      2.3072916      0.45399157     4.1279357      364.35949    
Loop time of 0.00353815 on 1 procs for 1 steps with 3 atoms

run 1 pre yes post no
PPPM initialization ...
  using 12-bit tables for long-range coulomb (src/kspace.cpp:342)
  G vector (1/distance) = 0.28934131
  grid = 18 18 18
  stencil order = 5
  estimated absolute RMS force accuracy = 7.7110449e-05
  estimated relative force accuracy = 5.3550243e-06
  using double precision KISS FFT
  3d grid and FFT values/proc = 15625 5832
Generated 0 of 21 mixed pair_coeff terms from geometric mixing rule
Per MPI rank memory allocation (min/avg/max) = 9.773 | 9.773 | 9.773 Mbytes
   Step          Temp          E_pair         E_mol          TotEng         Press     
        18   5286.4423      2.3072916      0.45399157     4.1279357      364.35949    
        19   4986.1347      2.3384678      0.50081421     4.1282991      367.49498    
Loop time of 0.00423935 on 1 procs for 1 steps with 3 atoms

run 1 pre yes post no
PPPM initialization ...
  using 12-bit tables for long-range coulomb (src/kspace.cpp:342)
  G vector (1/distance) = 0.28934131
  grid = 18 18 18
  stencil order = 5
  estimated absolute RMS force accuracy = 7.7110449e-05
  estimated relative force accuracy = 5.3550243e-06
  using double precision KISS FFT
  3d grid and FFT values/proc = 15625 5832
Generated 0 of 21 mixed pair_coeff terms from geometric mixing rule
Per MPI rank memory allocation (min/avg/max) = 9.773 | 9.773 | 9.773 Mbytes
   Step          Temp          E_pair         E_mol          TotEng         Press     
        19   4986.1347      2.3384678      0.50081421     4.1282991      367.49498    
        20   4843.4735      2.3602414      0.51601122     4.1283888      367.93974    
Loop time of 0.00373376 on 1 procs for 1 steps with 3 atoms

run 1 pre yes post no
PPPM initialization ...
  using 12-bit tables for long-range coulomb (src/kspace.cpp:342)
  G vector (1/distance) = 0.28934131
  grid = 18 18 18
  stencil order = 5
  estimated absolute RMS force accuracy = 7.7110449e-05
  estimated relative force accuracy = 5.3550243e-06
  using double precision KISS FFT
  3d grid and FFT values/proc = 15625 5832
Generated 0 of 21 mixed pair_coeff terms from geometric mixing rule
Per MPI rank memory allocation (min/avg/max) = 9.773 | 9.773 | 9.773 Mbytes
   Step          Temp          E_pair         E_mol          TotEng         Press     
        20   4843.4735      2.3602414      0.51601122     4.1283888      367.93974    
        21   4863.7229      2.3728336      0.4979931      4.1281978      365.86025    
Loop time of 0.00315416 on 1 procs for 1 steps with 3 atoms

run 1 pre yes post no
PPPM initialization ...
  using 12-bit tables for long-range coulomb (src/kspace.cpp:342)
  G vector (1/distance) = 0.28934131
  grid = 18 18 18
  stencil order = 5
  estimated absolute RMS force accuracy = 7.7110449e-05
  estimated relative force accuracy = 5.3550243e-06
  using double precision KISS FFT
  3d grid and FFT values/proc = 15625 5832
Generated 0 of 21 mixed pair_coeff terms from geometric mixing rule
Per MPI rank memory allocation (min/avg/max) = 9.773 | 9.773 | 9.773 Mbytes
   Step          Temp          E_pair         E_mol          TotEng         Press     
        21   4863.7229      2.3728336      0.4979931      4.1281978      365.86025    
        22   5036.2228      2.3766508      0.44913053     4.1277471      361.06362    
Loop time of 0.00337304 on 1 procs for 1 steps with 3 atoms

run 1 pre yes post no
PPPM initialization ...
  using 12-bit tables for long-range coulomb (src/kspace.cpp:342)
  G vector (1/distance) = 0.28934131
  grid = 18 18 18
  stencil order = 5
  estimated absolute RMS force accuracy = 7.7110449e-05
  estimated relative force accuracy = 5.3550243e-06
  using double precision KISS FFT
  3d grid and FFT values/proc = 15625 5832
Generated 0 of 21 mixed pair_coeff terms from geometric mixing rule
Per MPI rank memory allocation (min/avg/max) = 9.773 | 9.773 | 9.773 Mbytes
   Step          Temp          E_pair         E_mol          TotEng         Press     
        22   5036.2228      2.3766508      0.44913053     4.1277471      361.06362    
        23   5335.5607      2.3722698      0.37546171     4.1270822      353.0299     
Loop time of 0.00279948 on 1 procs for 1 steps with 3 atoms

run 1 pre yes post no
PPPM initialization ...
  using 12-bit tables for long-range coulomb (src/kspace.cpp:342)
  G vector (1/distance) = 0.28934131
  grid = 18 18 18
  stencil order = 5
  estimated absolute RMS force accuracy = 7.7110449e-05
  estimated relative force accuracy = 5.3550243e-06
  using double precision KISS FFT
  3d grid and FFT values/proc = 15625 5832
Generated 0 of 21 mixed pair_coeff terms from geometric mixing rule
Per MPI rank memory allocation (min/avg/max) = 9.773 | 9.773 | 9.773 Mbytes
   Step          Temp          E_pair         E_mol          TotEng         Press     
        23   5335.5607      2.3722698      0.37546171     4.1270822      353.0299     
        24   5724.0673      2.3604224      0.28605427     4.1262643      340.9844     
Loop time of 0.00287055 on 1 procs for 1 steps with 3 atoms

run 1 pre yes post no
PPPM initialization ...
  using 12-bit tables for long-range coulomb (src/kspace.cpp:342)
  G vector (1/distance) = 0.28934131
  grid = 18 18 18
  stencil order = 5
  estimated absolute RMS force accuracy = 7.7110449e-05
  estimated relative force accuracy = 5.3550243e-06
  using double precision KISS FFT
  3d grid and FFT values/proc = 15625 5832
Generated 0 of 21 mixed pair_coeff terms from geometric mixing rule
Per MPI rank memory allocation (min/avg/max) = 9.773 | 9.773 | 9.773 Mbytes
   Step          Temp          E_pair         E_mol          TotEng         Press     
        24   5724.0673      2.3604224      0.28605427     4.1262643      340.9844     
        25   6155.3538      2.3419859      0.19209735     4.1253671      324.00167    
Loop time of 0.00270818 on 1 procs for 1 steps with 3 atoms

run 1 pre yes post no
PPPM initialization ...
  using 12-bit tables for long-range coulomb (src/kspace.cpp:342)
  G vector (1/distance) = 0.28934131
  grid = 18 18 18
  stencil order = 5
  estimated absolute RMS force accuracy = 7.7110449e-05
  estimated relative force accuracy = 5.3550243e-06
  using double precision KISS FFT
  3d grid and FFT values/proc = 15625 5832
Generated 0 of 21 mixed pair_coeff terms from geometric mixing rule
Per MPI rank memory allocation (min/avg/max) = 9.773 | 9.773 | 9.773 Mbytes
   Step          Temp          E_pair         E_mol          TotEng         Press     
        25   6155.3538      2.3419859      0.19209735     4.1253671      324.00167    
        26   6578.5182      2.317965       0.1058226      4.1244681      301.12905    
Loop time of 0.00272711 on 1 procs for 1 steps with 3 atoms

run 1 pre yes post no
PPPM initialization ...
  using 12-bit tables for long-range coulomb (src/kspace.cpp:342)
  G vector (1/distance) = 0.28934131
  grid = 18 18 18
  stencil order = 5
  estimated absolute RMS force accuracy = 7.7110449e-05
  estimated relative force accuracy = 5.3550243e-06
  using double precision KISS FFT
  3d grid and FFT values/proc = 15625 5832
Generated 0 of 21 mixed pair_coeff terms from geometric mixing rule
Per MPI rank memory allocation (min/avg/max) = 9.773 | 9.773 | 9.773 Mbytes
   Step          Temp          E_pair         E_mol          TotEng         Press     
        26   6578.5182      2.317965       0.1058226      4.1244681      301.12905    
        27   6942.6178      2.289473       0.039361161    4.1236417      271.51751    
Loop time of 0.00271561 on 1 procs for 1 steps with 3 atoms

run 1 pre yes post no
PPPM initialization ...
  using 12-bit tables for long-range coulomb (src/kspace.cpp:342)
  G vector (1/distance) = 0.28934131
  grid = 18 18 18
  stencil order = 5
  estimated absolute RMS force accuracy = 7.7110449e-05
  estimated relative force accuracy = 5.3550243e-06
  using double precision KISS FFT
  3d grid and FFT values/proc = 15625 5832
Generated 0 of 21 mixed pair_coeff terms from geometric mixing rule
Per MPI rank memory allocation (min/avg/max) = 9.773 | 9.773 | 9.773 Mbytes
   Step          Temp          E_pair         E_mol          TotEng         Press     
        27   6942.6178      2.289473       0.039361161    4.1236417      271.51751    
        28   7201.0199      2.2577056      0.0036384386   4.1229538      234.54726    
Loop time of 0.0027185 on 1 procs for 1 steps with 3 atoms

run 1 pre yes post no
PPPM initialization ...
  using 12-bit tables for long-range coulomb (src/kspace.cpp:342)
  G vector (1/distance) = 0.28934131
  grid = 18 18 18
  stencil order = 5
  estimated absolute RMS force accuracy = 7.7110449e-05
  estimated relative force accuracy = 5.3550243e-06
  using double precision KISS FFT
  3d grid and FFT values/proc = 15625 5832
Generated 0 of 21 mixed pair_coeff terms from geometric mixing rule
Per MPI rank memory allocation (min/avg/max) = 9.773 | 9.773 | 9.773 Mbytes
   Step          Temp          E_pair         E_mol          TotEng         Press     
        28   7201.0199      2.2577056      0.0036384386   4.1229538      234.54726    
        29   7315.2929      2.2239102      0.0073953089   4.1224572      189.93723    
Loop time of 0.00268124 on 1 procs for 1 steps with 3 atoms

run 1 pre yes post no
PPPM initialization ...
  using 12-bit tables for long-range coulomb (src/kspace.cpp:342)
  G vector (1/distance) = 0.28934131
  grid = 18 18 18
  stencil order = 5
  estimated absolute RMS force accuracy = 7.7110449e-05
  estimated relative force accuracy = 5.3550243e-06
  using double precision KISS FFT
  3d grid and FFT values/proc = 15625 5832
Generated 0 of 21 mixed pair_coeff terms from geometric mixing rule
Per MPI rank memory allocation (min/avg/max) = 9.773 | 9.773 | 9.773 Mbytes
   Step          Temp          E_pair         E_mol          TotEng         Press     
        29   7315.2929      2.2239102      0.0073953089   4.1224572      189.93723    
        30   7258.3618      2.189349       0.056406461    4.1221893      137.82957    
Loop time of 0.00264644 on 1 procs for 1 steps with 3 atoms

run 1 pre yes post no
PPPM initialization ...
  using 12-bit tables for long-range coulomb (src/kspace.cpp:342)
  G vector (1/distance) = 0.28934131
  grid = 18 18 18
  stencil order = 5
  estimated absolute RMS force accuracy = 7.7110449e-05
  estimated relative force accuracy = 5.3550243e-06
  using double precision KISS FFT
  3d grid and FFT values/proc = 15625 5832
Generated 0 of 21 mixed pair_coeff terms from geometric mixing rule
Per MPI rank memory allocation (min/avg/max) = 9.773 | 9.773 | 9.773 Mbytes
   Step          Temp          E_pair         E_mol          TotEng         Press     
        30   7258.3618      2.189349       0.056406461    4.1221893      137.82957    
        31   7016.7254      2.1552566      0.15294718     4.1221697      78.842374    
Loop time of 0.0028877 on 1 procs for 1 steps with 3 atoms

run 1 pre yes post no
PPPM initialization ...
  using 12-bit tables for long-range coulomb (src/kspace.cpp:342)
  G vector (1/distance) = 0.28934131
  grid = 18 18 18
  stencil order = 5
  estimated absolute RMS force accuracy = 7.7110449e-05
  estimated relative force accuracy = 5.3550243e-06
  using double precision KISS FFT
  3d grid and FFT values/proc = 15625 5832
Generated 0 of 21 mixed pair_coeff terms from geometric mixing rule
Per MPI rank memory allocation (min/avg/max) = 9.773 | 9.773 | 9.773 Mbytes
   Step          Temp          E_pair         E_mol          TotEng         Press     
        31   7016.7254      2.1552566      0.15294718     4.1221697      78.842374    
        32   6591.604       2.1227953      0.29554        4.1223987      14.086816    
Loop time of 0.00303046 on 1 procs for 1 steps with 3 atoms

run 1 pre yes post no
PPPM initialization ...
  using 12-bit tables for long-range coulomb (src/kspace.cpp:342)
  G vector (1/distance) = 0.28934131
  grid = 18 18 18
  stencil order = 5
  estimated absolute RMS force accuracy = 7.7110449e-05
  estimated relative force accuracy = 5.3550243e-06
  using double precision KISS FFT
  3d grid and FFT values/proc = 15625 5832
Generated 0 of 21 mixed pair_coeff terms from geometric mixing rule
Per MPI rank memory allocation (min/avg/max) = 9.773 | 9.773 | 9.773 Mbytes
   Step          Temp          E_pair         E_mol          TotEng         Press     
        32   6591.604       2.1227953      0.29554        4.1223987      14.086816    
        33   5998.9618      2.0930185      0.47899291     4.1228647     -54.852811    
Loop time of 0.00319223 on 1 procs for 1 steps with 3 atoms

run 1 pre yes post no
PPPM initialization ...
  using 12-bit tables for long-range coulomb (src/kspace.cpp:342)
  G vector (1/distance) = 0.28934131
  grid = 18 18 18
  stencil order = 5
  estimated absolute RMS force accuracy = 7.7110449e-05
  estimated relative force accuracy = 5.3550243e-06
  using double precision KISS FFT
  3d grid and FFT values/proc = 15625 5832
Generated 0 of 21 mixed pair_coeff terms from geometric mixing rule
Per MPI rank memory allocation (min/avg/max) = 9.773 | 9.773 | 9.773 Mbytes
   Step          Temp          E_pair         E_mol          TotEng         Press     
        33   5998.9618      2.0930185      0.47899291     4.1228647     -54.852811    
        34   5268.4209      2.0668307      0.69472205     4.1235464     -125.97573    
Loop time of 0.00355043 on 1 procs for 1 steps with 3 atoms

run 1 pre yes post no
PPPM initialization ...
  using 12-bit tables for long-range coulomb (src/kspace.cpp:342)
  G vector (1/distance) = 0.28934131
  grid = 18 18 18
  stencil order = 5
  estimated absolute RMS force accuracy = 7.7110449e-05
  estimated relative force accuracy = 5.3550243e-06
  using double precision KISS FFT
  3d grid and FFT values/proc = 15625 5832
Generated 0 of 21 mixed pair_coeff terms from geometric mixing rule
Per MPI rank memory allocation (min/avg/max) = 9.773 | 9.773 | 9.773 Mbytes
   Step          Temp          E_pair         E_mol          TotEng         Press     
        34   5268.4209      2.0668307      0.69472205     4.1235464     -125.97573    
        35   4441.1388      2.044968       0.93133352     4.124426      -196.95437    
Loop time of 0.00340696 on 1 procs for 1 steps with 3 atoms

run 1 pre yes post no
PPPM initialization ...
  using 12-bit tables for long-range coulomb (src/kspace.cpp:342)
  G vector (1/distance) = 0.28934131
  grid = 18 18 18
  stencil order = 5
  estimated absolute RMS force accuracy = 7.7110449e-05
  estimated relative force accuracy = 5.3550243e-06
  using double precision KISS FFT
  3d grid and FFT values/proc = 15625 5832
Generated 0 of 21 mixed pair_coeff terms from geometric mixing rule
Per MPI rank memory allocation (min/avg/max) = 9.773 | 9.773 | 9.773 Mbytes
   Step          Temp          E_pair         E_mol          TotEng         Press     
        35   4441.1388      2.044968       0.93133352     4.124426      -196.95437    
        36   3566.7684      2.027983       1.1754226      4.1254876     -265.25331    
Loop time of 0.00312389 on 1 procs for 1 steps with 3 atoms

run 1 pre yes post no
PPPM initialization ...
  using 12-bit tables for long-range coulomb (src/kspace.cpp:342)
  G vector (1/distance) = 0.28934131
  grid = 18 18 18
  stencil order = 5
  estimated absolute RMS force accuracy = 7.7110449e-05
  estimated relative force accuracy = 5.3550243e-06
  using double precision KISS FFT
  3d grid and FFT values/proc = 15625 5832
Generated 0 of 21 mixed pair_coeff terms from geometric mixing rule
Per MPI rank memory allocation (min/avg/max) = 9.773 | 9.773 | 9.773 Mbytes
   Step          Temp          E_pair         E_mol          TotEng         Press     
        36   3566.7684      2.027983       1.1754226      4.1254876     -265.25331    
        37   2699.6791      2.0162441      1.4125313      4.1266973     -328.26964    
Loop time of 0.00323823 on 1 procs for 1 steps with 3 atoms

run 1 pre yes post no
PPPM initialization ...
  using 12-bit tables for long-range coulomb (src/kspace.cpp:342)
  G vector (1/distance) = 0.28934131
  grid = 18 18 18
  stencil order = 5
  estimated absolute RMS force accuracy = 7.7110449e-05
  estimated relative force accuracy = 5.3550243e-06
  using double precision KISS FFT
  3d grid and FFT values/proc = 15625 5832
Generated 0 of 21 mixed pair_coeff terms from geometric mixing rule
Per MPI rank memory allocation (min/avg/max) = 9.773 | 9.773 | 9.773 Mbytes
   Step          Temp          E_pair         E_mol          TotEng         Press     
        37   2699.6791      2.0162441      1.4125313      4.1266973     -328.26964    
        38   1894.7512      2.0099516      1.6281889      4.1279721     -383.48445    
Loop time of 0.00342726 on 1 procs for 1 steps with 3 atoms

run 1 pre yes post no
PPPM initialization ...
  using 12-bit tables for long-range coulomb (src/kspace.cpp:342)
  G vector (1/distance) = 0.28934131
  grid = 18 18 18
  stencil order = 5
  estimated absolute RMS force accuracy = 7.7110449e-05
  estimated relative force accuracy = 5.3550243e-06
  using double precision KISS FFT
  3d grid and FFT values/proc = 15625 5832
Generated 0 of 21 mixed pair_coeff terms from geometric mixing rule
Per MPI rank memory allocation (min/avg/max) = 9.773 | 9.773 | 9.773 Mbytes
   Step          Temp          E_pair         E_mol          TotEng         Press     
        38   1894.7512      2.0099516      1.6281889      4.1279721     -383.48445    
        39   1203.1878      2.0091641      1.8089495      4.1291621     -428.61115    
Loop time of 0.00343024 on 1 procs for 1 steps with 3 atoms

run 1 pre yes post no
PPPM initialization ...
  using 12-bit tables for long-range coulomb (src/kspace.cpp:342)
  G vector (1/distance) = 0.28934131
  grid = 18 18 18
  stencil order = 5
  estimated absolute RMS force accuracy = 7.7110449e-05
  estimated relative force accuracy = 5.3550243e-06
  using double precision KISS FFT
  3d grid and FFT values/proc = 15625 5832
Generated 0 of 21 mixed pair_coeff terms from geometric mixing rule
Per MPI rank memory allocation (min/avg/max) = 9.773 | 9.773 | 9.773 Mbytes
   Step          Temp          E_pair         E_mol          TotEng         Press     
        39   1203.1878      2.0091641      1.8089495      4.1291621     -428.61115    
        40   668.79774      2.0138264      1.9433448      4.130069      -461.72775    
Loop time of 0.00328202 on 1 procs for 1 steps with 3 atoms

run 1 pre yes post no
PPPM initialization ...
  using 12-bit tables for long-range coulomb (src/kspace.cpp:342)
  G vector (1/distance) = 0.28934131
  grid = 18 18 18
  stencil order = 5
  estimated absolute RMS force accuracy = 7.7110449e-05
  estimated relative force accuracy = 5.3550243e-06
  using double precision KISS FFT
  3d grid and FFT values/proc = 15625 5832
Generated 0 of 21 mixed pair_coeff terms from geometric mixing rule
Per MPI rank memory allocation (min/avg/max) = 9.773 | 9.773 | 9.773 Mbytes
   Step          Temp          E_pair         E_mol          TotEng         Press     
        40   668.79774      2.0138264      1.9433448      4.130069      -461.72775    
        41   325.02252      2.023815       2.0226858      4.1305257     -481.38367    
Loop time of 0.00305571 on 1 procs for 1 steps with 3 atoms

run 1 pre yes post no
PPPM initialization ...
  using 12-bit tables for long-range coulomb (src/kspace.cpp:342)
  G vector (1/distance) = 0.28934131
  grid = 18 18 18
  stencil order = 5
  estimated absolute RMS force accuracy = 7.7110449e-05
  estimated relative force accuracy = 5.3550243e-06
  using double precision KISS FFT
  3d grid and FFT values/proc = 15625 5832
Generated 0 of 21 mixed pair_coeff terms from geometric mixing rule
Per MPI rank memory allocation (min/avg/max) = 9.773 | 9.773 | 9.773 Mbytes
   Step          Temp          E_pair         E_mol          TotEng         Press     
        41   325.02252      2.023815       2.0226858      4.1305257     -481.38367    
        42   192.74921      2.0389578      2.0416715      4.1304588     -486.68021    
Loop time of 0.00260513 on 1 procs for 1 steps with 3 atoms

run 1 pre yes post no
PPPM initialization ...
  using 12-bit tables for long-range coulomb (src/kspace.cpp:342)
  G vector (1/distance) = 0.28934131
  grid = 18 18 18
  stencil order = 5
  estimated absolute RMS force accuracy = 7.7110449e-05
  estimated relative force accuracy = 5.3550243e-06
  using double precision KISS FFT
  3d grid and FFT values/proc = 15625 5832
Generated 0 of 21 mixed pair_coeff terms from geometric mixing rule
Per MPI rank memory allocation (min/avg/max) = 9.773 | 9.773 | 9.773 Mbytes
   Step          Temp          E_pair         E_mol          TotEng         Press     
        42   192.74921      2.0389578      2.0416715      4.1304588     -486.68021    
        43   278.84291      2.0590614      1.9987773      4.1299253     -477.32346    
Loop time of 0.00272807 on 1 procs for 1 steps with 3 atoms

run 1 pre yes post no
PPPM initialization ...
  using 12-bit tables for long-range coulomb (src/kspace.cpp:342)
  G vector (1/distance) = 0.28934131
  grid = 18 18 18
  stencil order = 5
  estimated absolute RMS force accuracy = 7.7110449e-05
  estimated relative force accuracy = 5.3550243e-06
  using double precision KISS FFT
  3d grid and FFT values/proc = 15625 5832
Generated 0 of 21 mixed pair_coeff terms from geometric mixing rule
Per MPI rank memory allocation (min/avg/max) = 9.773 | 9.773 | 9.773 Mbytes
   Step          Temp          E_pair         E_mol          TotEng         Press     
        43   278.84291      2.0590614      1.9987773      4.1299253     -477.32346    
        44   575.41455      2.0839143      1.8964013      4.129072      -453.64941    
Loop time of 0.00244956 on 1 procs for 1 steps with 3 atoms

run 1 pre yes post no
PPPM initialization ...
  using 12-bit tables for long-range coulomb (src/kspace.cpp:342)
  G vector (1/distance) = 0.28934131
  grid = 18 18 18
  stencil order = 5
  estimated absolute RMS force accuracy = 7.7110449e-05
  estimated relative force accuracy = 5.3550243e-06
  using double precision KISS FFT
  3d grid and FFT values/proc = 15625 5832
Generated 0 of 21 mixed pair_coeff terms from geometric mixing rule
Per MPI rank memory allocation (min/avg/max) = 9.773 | 9.773 | 9.773 Mbytes
   Step          Temp          E_pair         E_mol          TotEng         Press     
        44   575.41455      2.0839143      1.8964013      4.129072      -453.64941    
        45   1059.993       2.113283       1.7407504      4.1280631     -416.61562    
Loop time of 0.00276923 on 1 procs for 1 steps with 3 atoms

run 1 pre yes post no
PPPM initialization ...
  using 12-bit tables for long-range coulomb (src/kspace.cpp:342)
  G vector (1/distance) = 0.28934131
  grid = 18 18 18
  stencil order = 5
  estimated absolute RMS force accuracy = 7.7110449e-05
  estimated relative force accuracy = 5.3550243e-06
  using double precision KISS FFT
  3d grid and FFT values/proc = 15625 5832
Generated 0 of 21 mixed pair_coeff terms from geometric mixing rule
Per MPI rank memory allocation (min/avg/max) = 9.773 | 9.773 | 9.773 Mbytes
   Step          Temp          E_pair         E_mol          TotEng         Press     
        45   1059.993       2.113283       1.7407504      4.1280631     -416.61562    
        46   1696.8207      2.1468955      1.5414563      4.1270144     -367.75435    
Loop time of 0.00266676 on 1 procs for 1 steps with 3 atoms

run 1 pre yes post no
PPPM initialization ...
  using 12-bit tables for long-range coulomb (src/kspace.cpp:342)
  G vector (1/distance) = 0.28934131
  grid = 18 18 18
  stencil order = 5
  estimated absolute RMS force accuracy = 7.7110449e-05
  estimated relative force accuracy = 5.3550243e-06
  using double precision KISS FFT
  3d grid and FFT values/proc = 15625 5832
Generated 0 of 21 mixed pair_coeff terms from geometric mixing rule
Per MPI rank memory allocation (min/avg/max) = 9.773 | 9.773 | 9.773 Mbytes
   Step          Temp          E_pair         E_mol          TotEng         Press     
        46   1696.8207      2.1468955      1.5414563      4.1270144     -367.75435    
        47   2439.344       2.1844258      1.3109345      4.1259802     -309.08497    
Loop time of 0.00253093 on 1 procs for 1 steps with 3 atoms

run 1 pre yes post no
PPPM initialization ...
  using 12-bit tables for long-range coulomb (src/kspace.cpp:342)
  G vector (1/distance) = 0.28934131
  grid = 18 18 18
  stencil order = 5
  estimated absolute RMS force accuracy = 7.7110449e-05
  estimated relative force accuracy = 5.3550243e-06
  using double precision KISS FFT
  3d grid and FFT values/proc = 15625 5832
Generated 0 of 21 mixed pair_coeff terms from geometric mixing rule
Per MPI rank memory allocation (min/avg/max) = 9.773 | 9.773 | 9.773 Mbytes
   Step          Temp          E_pair         E_mol          TotEng         Press     
        47   2439.344       2.1844258      1.3109345      4.1259802     -309.08497    
        48   3233.6899      2.2254834      1.0635279      4.1249858     -242.99174    
Loop time of 0.00268466 on 1 procs for 1 steps with 3 atoms

run 1 pre yes post no
PPPM initialization ...
  using 12-bit tables for long-range coulomb (src/kspace.cpp:342)
  G vector (1/distance) = 0.28934131
  grid = 18 18 18
  stencil order = 5
  estimated absolute RMS force accuracy = 7.7110449e-05
  estimated relative force accuracy = 5.3550243e-06
  using double precision KISS FFT
  3d grid and FFT values/proc = 15625 5832
Generated 0 of 21 mixed pair_coeff terms from geometric mixing rule
Per MPI rank memory allocation (min/avg/max) = 9.773 | 9.773 | 9.773 Mbytes
   Step          Temp          E_pair         E_mol          TotEng         Press     
        48   3233.6899      2.2254834      1.0635279      4.1249858     -242.99174    
        49   4022.7204      2.2695905      0.81450601     4.1240513     -172.07973    
Loop time of 0.00244136 on 1 procs for 1 steps with 3 atoms

run 1 pre yes post no
PPPM initialization ...
  using 12-bit tables for long-range coulomb (src/kspace.cpp:342)
  G vector (1/distance) = 0.28934131
  grid = 18 18 18
  stencil order = 5
  estimated absolute RMS force accuracy = 7.7110449e-05
  estimated relative force accuracy = 5.3550243e-06
  using double precision KISS FFT
  3d grid and FFT values/proc = 15625 5832
Generated 0 of 21 mixed pair_coeff terms from geometric mixing rule
Per MPI rank memory allocation (min/avg/max) = 9.773 | 9.773 | 9.773 Mbytes
   Step          Temp          E_pair         E_mol          TotEng         Press     
        49   4022.7204      2.2695905      0.81450601     4.1240513     -172.07973    
        50   4750.2419      2.3161817      0.57899993     4.1232155     -99.021103    
Loop time of 0.00251229 on 1 procs for 1 steps with 3 atoms

run 1 pre yes post no
PPPM initialization ...
  using 12-bit tables for long-range coulomb (src/kspace.cpp:342)
  G vector (1/distance) = 0.28934131
  grid = 18 18 18
  stencil order = 5
  estimated absolute RMS force accuracy = 7.7110449e-05
  estimated relative force accuracy = 5.3550243e-06
  using double precision KISS FFT
  3d grid and FFT values/proc = 15625 5832
Generated 0 of 21 mixed pair_coeff terms from geometric mixing rule
Per MPI rank memory allocation (min/avg/max) = 9.773 | 9.773 | 9.773 Mbytes
   Step          Temp          E_pair         E_mol          TotEng         Press     
        50   4750.2419      2.3161817      0.57899993     4.1232155     -99.021103    
        51   5365.0471      2.3645973      0.37095484     4.1225257     -26.404444    
Loop time of 0.00269017 on 1 procs for 1 steps with 3 atoms

run 1 pre yes post no
PPPM initialization ...
  using 12-bit tables for long-range coulomb (src/kspace.cpp:342)
  G vector (1/distance) = 0.28934131
  grid = 18 18 18
  stencil order = 5
  estimated absolute RMS force accuracy = 7.7110449e-05
  estimated relative force accuracy = 5.3550243e-06
  using double precision KISS FFT
  3d grid and FFT values/proc = 15625 5832
Generated 0 of 21 mixed pair_coeff terms from geometric mixing rule
Per MPI rank memory allocation (min/avg/max) = 9.773 | 9.773 | 9.773 Mbytes
   Step          Temp          E_pair         E_mol          TotEng         Press     
        51   5365.0471      2.3645973      0.37095484     4.1225257     -26.404444    
        52   5824.553       2.4140887      0.2021738      4.1220276      43.404447    
Loop time of 0.00245855 on 1 procs for 1 steps with 3 atoms

run 1 pre yes post no
PPPM initialization ...
  using 12-bit tables for long-range coulomb (src/kspace.cpp:342)
  G vector (1/distance) = 0.28934131
  grid = 18 18 18
  stencil order = 5
  estimated absolute RMS force accuracy = 7.7110449e-05
  estimated relative force accuracy = 5.3550243e-06
  using double precision KISS FFT
  3d grid and FFT values/proc = 15625 5832
Generated 0 of 21 mixed pair_coeff terms from geometric mixing rule
Per MPI rank memory allocation (min/avg/max) = 9.773 | 9.773 | 9.773 Mbytes
   Step          Temp          E_pair         E_mol          TotEng         Press     
        52   5824.553       2.4140887      0.2021738      4.1220276      43.404447    
        53   6097.8245      2.4638284      0.08151749     4.1217573      108.38199    
Loop time of 0.00269288 on 1 procs for 1 steps with 3 atoms

run 1 pre yes post no
PPPM initialization ...
  using 12-bit tables for long-range coulomb (src/kspace.cpp:342)
  G vector (1/distance) = 0.28934131
  grid = 18 18 18
  stencil order = 5
  estimated absolute RMS force accuracy = 7.7110449e-05
  estimated relative force accuracy = 5.3550243e-06
  using double precision KISS FFT
  3d grid and FFT values/proc = 15625 5832
Generated 0 of 21 mixed pair_coeff terms from geometric mixing rule
Per MPI rank memory allocation (min/avg/max) = 9.773 | 9.773 | 9.773 Mbytes
   Step          Temp          E_pair         E_mol          TotEng         Press     
        53   6097.8245      2.4638284      0.08151749     4.1217573      108.38199    
        54   6167.7725      2.5129259      0.01431452     4.1217347      166.93923    
Loop time of 0.00286649 on 1 procs for 1 steps with 3 atoms

run 1 pre yes post no
PPPM initialization ...
  using 12-bit tables for long-range coulomb (src/kspace.cpp:342)
  G vector (1/distance) = 0.28934131
  grid = 18 18 18
  stencil order = 5
  estimated absolute RMS force accuracy = 7.7110449e-05
  estimated relative force accuracy = 5.3550243e-06
  using double precision KISS FFT
  3d grid and FFT values/proc = 15625 5832
Generated 0 of 21 mixed pair_coeff terms from geometric mixing rule
Per MPI rank memory allocation (min/avg/max) = 9.773 | 9.773 | 9.773 Mbytes
   Step          Temp          E_pair         E_mol          TotEng         Press     
        54   6167.7725      2.5129259      0.01431452     4.1217347      166.93923    
        55   6032.3777      2.5604465      0.0020222836   4.1219609      217.98173    
Loop time of 0.00265788 on 1 procs for 1 steps with 3 atoms

run 1 pre yes post no
PPPM initialization ...
  using 12-bit tables for long-range coulomb (src/kspace.cpp:342)
  G vector (1/distance) = 0.28934131
  grid = 18 18 18
  stencil order = 5
  estimated absolute RMS force accuracy = 7.7110449e-05
  estimated relative force accuracy = 5.3550243e-06
  using double precision KISS FFT
  3d grid and FFT values/proc = 15625 5832
Generated 0 of 21 mixed pair_coeff terms from geometric mixing rule
Per MPI rank memory allocation (min/avg/max) = 9.773 | 9.773 | 9.773 Mbytes
   Step          Temp          E_pair         E_mol          TotEng         Press     
        55   6032.3777      2.5604465      0.0020222836   4.1219609      217.98173    
        56   5704.8568      2.6054402      0.042161613    4.122423       260.93395    
Loop time of 0.00115017 on 1 procs for 1 steps with 3 atoms

run 1 pre yes post no
PPPM initialization ...
  using 12-bit tables for long-range coulomb (src/kspace.cpp:342)
  G vector (1/distance) = 0.28934131
  grid = 18 18 18
  stencil order = 5
  estimated absolute RMS force accuracy = 7.7110449e-05
  estimated relative force accuracy = 5.3550243e-06
  using double precision KISS FFT
  3d grid and FFT values/proc = 15625 5832
Generated 0 of 21 mixed pair_coeff terms from geometric mixing rule
Per MPI rank memory allocation (min/avg/max) = 9.773 | 9.773 | 9.773 Mbytes
   Step          Temp          E_pair         E_mol          TotEng         Press     
        56   5704.8568      2.6054402      0.042161613    4.122423       260.93395    
        57   5212.7585      2.6469552      0.12852973     4.1230888      295.72653    
Loop time of 0.00113233 on 1 procs for 1 steps with 3 atoms

run 1 pre yes post no
PPPM initialization ...
  using 12-bit tables for long-range coulomb (src/kspace.cpp:342)
  G vector (1/distance) = 0.28934131
  grid = 18 18 18
  stencil order = 5
  estimated absolute RMS force accuracy = 7.7110449e-05
  estimated relative force accuracy = 5.3550243e-06
  using double precision KISS FFT
  3d grid and FFT values/proc = 15625 5832
Generated 0 of 21 mixed pair_coeff terms from geometric mixing rule
Per MPI rank memory allocation (min/avg/max) = 9.773 | 9.773 | 9.773 Mbytes
   Step          Temp          E_pair         E_mol          TotEng         Press     
        57   5212.7585      2.6469552      0.12852973     4.1230888      295.72653    
        58   4596.0517      2.6840634      0.25167754     4.1239136      322.74908    
Loop time of 0.00111849 on 1 procs for 1 steps with 3 atoms

run 1 pre yes post no
PPPM initialization ...
  using 12-bit tables for long-range coulomb (src/kspace.cpp:342)
  G vector (1/distance) = 0.28934131
  grid = 18 18 18
  stencil order = 5
  estimated absolute RMS force accuracy = 7.7110449e-05
  estimated relative force accuracy = 5.3550243e-06
  using double precision KISS FFT
  3d grid and FFT values/proc = 15625 5832
Generated 0 of 21 mixed pair_coeff terms from geometric mixing rule
Per MPI rank memory allocation (min/avg/max) = 9.773 | 9.773 | 9.773 Mbytes
   Step          Temp          E_pair         E_mol          TotEng         Press     
        58   4596.0517      2.6840634      0.25167754     4.1239136      322.74908    
        59   3904.3316      2.7158705      0.39961979     4.1248393      342.77167    
Loop time of 0.00110942 on 1 procs for 1 steps with 3 atoms

run 1 pre yes post no
PPPM initialization ...
  using 12-bit tables for long-range coulomb (src/kspace.cpp:342)
  G vector (1/distance) = 0.28934131
  grid = 18 18 18
  stencil order = 5
  estimated absolute RMS force accuracy = 7.7110449e-05
  estimated relative force accuracy = 5.3550243e-06
  using double precision KISS FFT
  3d grid and FFT values/proc = 15625 5832
Generated 0 of 21 mixed pair_coeff terms from geometric mixing rule
Per MPI rank memory allocation (min/avg/max) = 9.773 | 9.773 | 9.773 Mbytes
   Step          Temp          E_pair         E_mol          TotEng         Press     
        59   3904.3316      2.7158705      0.39961979     4.1248393      342.77167    
        60   3193.3255      2.7415309      0.55873124     4.1258015      356.84175    
Loop time of 0.0011205 on 1 procs for 1 steps with 3 atoms

run 1 pre yes post no
PPPM initialization ...
  using 12-bit tables for long-range coulomb (src/kspace.cpp:342)
  G vector (1/distance) = 0.28934131
  grid = 18 18 18
  stencil order = 5
  estimated absolute RMS force accuracy = 7.7110449e-05
  estimated relative force accuracy = 5.3550243e-06
  using double precision KISS FFT
  3d grid and FFT values/proc = 15625 5832
Generated 0 of 21 mixed pair_coeff terms from geometric mixing rule
Per MPI rank memory allocation (min/avg/max) = 9.773 | 9.773 | 9.773 Mbytes
   Step          Temp          E_pair         E_mol          TotEng         Press     
        60   3193.3255      2.7415309      0.55873124     4.1258015      356.84175    
        61   2520.929       2.7602493      0.71476942     4.1267301      366.16356    
Loop time of 0.00107291 on 1 procs for 1 steps with 3 atoms

run 1 pre yes post no
PPPM initialization ...
  using 12-bit tables for long-range coulomb (src/kspace.cpp:342)
  G vector (1/distance) = 0.28934131
  grid = 18 18 18
  stencil order = 5
  estimated absolute RMS force accuracy = 7.7110449e-05
  estimated relative force accuracy = 5.3550243e-06
  using double precision KISS FFT
  3d grid and FFT values/proc = 15625 5832
Generated 0 of 21 mixed pair_coeff terms from geometric mixing rule
Per MPI rank memory allocation (min/avg/max) = 9.773 | 9.773 | 9.773 Mbytes
   Step          Temp          E_pair         E_mol          TotEng         Press     
        61   2520.929       2.7602493      0.71476942     4.1267301      366.16356    
        62   1943.0344      2.77129        0.85395472     4.1275585      371.96968    
Loop time of 0.00110152 on 1 procs for 1 steps with 3 atoms

run 1 pre yes post no
PPPM initialization ...
  using 12-bit tables for long-range coulomb (src/kspace.cpp:342)
  G vector (1/distance) = 0.28934131
  grid = 18 18 18
  stencil order = 5
  estimated absolute RMS force accuracy = 7.7110449e-05
  estimated relative force accuracy = 5.3550243e-06
  using double precision KISS FFT
  3d grid and FFT values/proc = 15625 5832
Generated 0 of 21 mixed pair_coeff terms from geometric mixing rule
Per MPI rank memory allocation (min/avg/max) = 9.773 | 9.773 | 9.773 Mbytes
   Step          Temp          E_pair         E_mol          TotEng         Press     
        62   1943.0344      2.77129        0.85395472     4.1275585      371.96968    
        63   1509.4394      2.7739712      0.96403261     4.1282246      375.39361    
Loop time of 0.00107733 on 1 procs for 1 steps with 3 atoms

run 1 pre yes post no
PPPM initialization ...
  using 12-bit tables for long-range coulomb (src/kspace.cpp:342)
  G vector (1/distance) = 0.28934131
  grid = 18 18 18
  stencil order = 5
  estimated absolute RMS force accuracy = 7.7110449e-05
  estimated relative force accuracy = 5.3550243e-06
  using double precision KISS FFT
  3d grid and FFT values/proc = 15625 5832
Generated 0 of 21 mixed pair_coeff terms from geometric mixing rule
Per MPI rank memory allocation (min/avg/max) = 9.773 | 9.773 | 9.773 Mbytes
   Step          Temp          E_pair         E_mol          TotEng         Press     
        63   1509.4394      2.7739712      0.96403261     4.1282246      375.39361    
        64   1260.1293      2.7676664      1.0352409      4.1286762      377.35389    
Loop time of 0.00127546 on 1 procs for 1 steps with 3 atoms

run 1 pre yes post no
PPPM initialization ...
  using 12-bit tables for long-range coulomb (src/kspace.cpp:342)
  G vector (1/distance) = 0.28934131
  grid = 18 18 18
  stencil order = 5
  estimated absolute RMS force accuracy = 7.7110449e-05
  estimated relative force accuracy = 5.3550243e-06
  using double precision KISS FFT
  3d grid and FFT values/proc = 15625 5832
Generated 0 of 21 mixed pair_coeff terms from geometric mixing rule
Per MPI rank memory allocation (min/avg/max) = 9.773 | 9.773 | 9.773 Mbytes
   Step          Temp          E_pair         E_mol          TotEng         Press     
        64   1260.1293      2.7676664      1.0352409      4.1286762      377.35389    
        65   1222.2134      2.7518038      1.061107       4.1288778      378.45882    
Loop time of 0.00110304 on 1 procs for 1 steps with 3 atoms

run 1 pre yes post no
PPPM initialization ...
  using 12-bit tables for long-range coulomb (src/kspace.cpp:342)
  G vector (1/distance) = 0.28934131
  grid = 18 18 18
  stencil order = 5
  estimated absolute RMS force accuracy = 7.7110449e-05
  estimated relative force accuracy = 5.3550243e-06
  using double precision KISS FFT
  3d grid and FFT values/proc = 15625 5832
Generated 0 of 21 mixed pair_coeff terms from geometric mixing rule
Per MPI rank memory allocation (min/avg/max) = 9.773 | 9.773 | 9.773 Mbytes
   Step          Temp          E_pair         E_mol          TotEng         Press     
        65   1222.2134      2.7518038      1.061107       4.1288778      378.45882    
        66   1407.7655      2.7258635      1.0390104      4.1288098      378.93987    
Loop time of 0.00121926 on 1 procs for 1 steps with 3 atoms

run 1 pre yes post no
PPPM initialization ...
  using 12-bit tables for long-range coulomb (src/kspace.cpp:342)
  G vector (1/distance) = 0.28934131
  grid = 18 18 18
  stencil order = 5
  estimated absolute RMS force accuracy = 7.7110449e-05
  estimated relative force accuracy = 5.3550243e-06
  using double precision KISS FFT
  3d grid and FFT values/proc = 15625 5832
Generated 0 of 21 mixed pair_coeff terms from geometric mixing rule
Per MPI rank memory allocation (min/avg/max) = 9.773 | 9.773 | 9.773 Mbytes
   Step          Temp          E_pair         E_mol          TotEng         Press     
        66   1407.7655      2.7258635      1.0390104      4.1288098      378.93987    
        67   1812.758       2.6893817      0.97045769     4.1284741      378.62029    
Loop time of 0.00112151 on 1 procs for 1 steps with 3 atoms

run 1 pre yes post no
PPPM initialization ...
  using 12-bit tables for long-range coulomb (src/kspace.cpp:342)
  G vector (1/distance) = 0.28934131
  grid = 18 18 18
  stencil order = 5
  estimated absolute RMS force accuracy = 7.7110449e-05
  estimated relative force accuracy = 5.3550243e-06
  using double precision KISS FFT
  3d grid and FFT values/proc = 15625 5832
Generated 0 of 21 mixed pair_coeff terms from geometric mixing rule
Per MPI rank memory allocation (min/avg/max) = 9.773 | 9.773 | 9.773 Mbytes
   Step          Temp          E_pair         E_mol          TotEng         Press     
        67   1812.758       2.6893817      0.97045769     4.1284741      378.62029    
        68   2417.1923      2.6419549      0.86104464     4.1278928      376.9219     
Loop time of 0.00110249 on 1 procs for 1 steps with 3 atoms

run 1 pre yes post no
PPPM initialization ...
  using 12-bit tables for long-range coulomb (src/kspace.cpp:342)
  G vector (1/distance) = 0.28934131
  grid = 18 18 18
  stencil order = 5
  estimated absolute RMS force accuracy = 7.7110449e-05
  estimated relative force accuracy = 5.3550243e-06
  using double precision KISS FFT
  3d grid and FFT values/proc = 15625 5832
Generated 0 of 21 mixed pair_coeff terms from geometric mixing rule
Per MPI rank memory allocation (min/avg/max) = 9.773 | 9.773 | 9.773 Mbytes
   Step          Temp          E_pair         E_mol          TotEng         Press     
        68   2417.1923      2.6419549      0.86104464     4.1278928      376.9219     
        69   3186.4317      2.5832506      0.72009967     4.1271075      372.91079    
Loop time of 0.00113708 on 1 procs for 1 steps with 3 atoms

run 1 pre yes post no
PPPM initialization ...
  using 12-bit tables for long-range coulomb (src/kspace.cpp:342)
  G vector (1/distance) = 0.28934131
  grid = 18 18 18
  stencil order = 5
  estimated absolute RMS force accuracy = 7.7110449e-05
  estimated relative force accuracy = 5.3550243e-06
  using double precision KISS FFT
  3d grid and FFT values/proc = 15625 5832
Generated 0 of 21 mixed pair_coeff terms from geometric mixing rule
Per MPI rank memory allocation (min/avg/max) = 9.773 | 9.773 | 9.773 Mbytes
   Step          Temp          E_pair         E_mol          TotEng         Press     
        69   3186.4317      2.5832506      0.72009967     4.1271075      372.91079    
        70   4073.6309      2.5130203      0.56003651     4.126173       365.37836    
Loop time of 0.0011568 on 1 procs for 1 steps with 3 atoms

run 1 pre yes post no
PPPM initialization ...
  using 12-bit tables for long-range coulomb (src/kspace.cpp:342)
  G vector (1/distance) = 0.28934131
  grid = 18 18 18
  stencil order = 5
  estimated absolute RMS force accuracy = 7.7110449e-05
  estimated relative force accuracy = 5.3550243e-06
  using double precision KISS FFT
  3d grid and FFT values/proc = 15625 5832
Generated 0 of 21 mixed pair_coeff terms from geometric mixing rule
Per MPI rank memory allocation (min/avg/max) = 9.773 | 9.773 | 9.773 Mbytes
   Step          Temp          E_pair         E_mol          TotEng         Press     
        70   4073.6309      2.5130203      0.56003651     4.126173       365.37836    
        71   5023.0624      2.4311261      0.39546544     4.1251551      352.95231    
Loop time of 0.00421832 on 1 procs for 1 steps with 3 atoms

run 1 pre yes post no
PPPM initialization ...
  using 12-bit tables for long-range coulomb (src/kspace.cpp:342)
  G vector (1/distance) = 0.28934131
  grid = 18 18 18
  stencil order = 5
  estimated absolute RMS force accuracy = 7.7110449e-05
  estimated relative force accuracy = 5.3550243e-06
  using double precision KISS FFT
  3d grid and FFT values/proc = 15625 5832
Generated 0 of 21 mixed pair_coeff terms from geometric mixing rule
Per MPI rank memory allocation (min/avg/max) = 9.773 | 9.773 | 9.773 Mbytes
   Step          Temp          E_pair         E_mol          TotEng         Press     
        71   5023.0624      2.4311261      0.39546544     4.1251551      352.95231    
        72   5974.0596      2.3375745      0.24213345     4.1241236      334.22886    
Loop time of 0.00272052 on 1 procs for 1 steps with 3 atoms

run 1 pre yes post no
PPPM initialization ...
  using 12-bit tables for long-range coulomb (src/kspace.cpp:342)
  G vector (1/distance) = 0.28934131
  grid = 18 18 18
  stencil order = 5
  estimated absolute RMS force accuracy = 7.7110449e-05
  estimated relative force accuracy = 5.3550243e-06
  using double precision KISS FFT
  3d grid and FFT values/proc = 15625 5832
Generated 0 of 21 mixed pair_coeff terms from geometric mixing rule
Per MPI rank memory allocation (min/avg/max) = 9.773 | 9.773 | 9.773 Mbytes
   Step          Temp          E_pair         E_mol          TotEng         Press     
        72   5974.0596      2.3375745      0.24213345     4.1241236      334.22886    
        73   6865.2533      2.2325678      0.11577474     4.1231499      307.91699    
Loop time of 0.00288027 on 1 procs for 1 steps with 3 atoms

run 1 pre yes post no
PPPM initialization ...
  using 12-bit tables for long-range coulomb (src/kspace.cpp:342)
  G vector (1/distance) = 0.28934131
  grid = 18 18 18
  stencil order = 5
  estimated absolute RMS force accuracy = 7.7110449e-05
  estimated relative force accuracy = 5.3550243e-06
  using double precision KISS FFT
  3d grid and FFT values/proc = 15625 5832
Generated 0 of 21 mixed pair_coeff terms from geometric mixing rule
Per MPI rank memory allocation (min/avg/max) = 9.773 | 9.773 | 9.773 Mbytes
   Step          Temp          E_pair         E_mol          TotEng         Press     
        73   6865.2533      2.2325678      0.11577474     4.1231499      307.91699    
        74   7638.7586      2.1165645      0.030956852    4.1222955      272.98462    
Loop time of 0.00250636 on 1 procs for 1 steps with 3 atoms

run 1 pre yes post no
PPPM initialization ...
  using 12-bit tables for long-range coulomb (src/kspace.cpp:342)
  G vector (1/distance) = 0.28934131
  grid = 18 18 18
  stencil order = 5
  estimated absolute RMS force accuracy = 7.7110449e-05
  estimated relative force accuracy = 5.3550243e-06
  using double precision KISS FFT
  3d grid and FFT values/proc = 15625 5832
Generated 0 of 21 mixed pair_coeff terms from geometric mixing rule
Per MPI rank memory allocation (min/avg/max) = 9.773 | 9.773 | 9.773 Mbytes
   Step          Temp          E_pair         E_mol          TotEng         Press     
        74   7638.7586      2.1165645      0.030956852    4.1222955      272.98462    
        75   8243.9865      1.9903702      3.5038713e-06  4.1216115      228.79798    
Loop time of 0.00250332 on 1 procs for 1 steps with 3 atoms

run 1 pre yes post no
PPPM initialization ...
  using 12-bit tables for long-range coulomb (src/kspace.cpp:342)
  G vector (1/distance) = 0.28934131
  grid = 18 18 18
  stencil order = 5
  estimated absolute RMS force accuracy = 7.7110449e-05
  estimated relative force accuracy = 5.3550243e-06
  using double precision KISS FFT
  3d grid and FFT values/proc = 15625 5832
Generated 0 of 21 mixed pair_coeff terms from geometric mixing rule
Per MPI rank memory allocation (min/avg/max) = 9.773 | 9.773 | 9.773 Mbytes
   Step          Temp          E_pair         E_mol          TotEng         Press     
        75   8243.9865      1.9903702      3.5038713e-06  4.1216115      228.79798    
        76   8640.811       1.855249       0.032065011    4.1211389      175.24629    
Loop time of 0.00249824 on 1 procs for 1 steps with 3 atoms

run 1 pre yes post no
PPPM initialization ...
  using 12-bit tables for long-range coulomb (src/kspace.cpp:342)
  G vector (1/distance) = 0.28934131
  grid = 18 18 18
  stencil order = 5
  estimated absolute RMS force accuracy = 7.7110449e-05
  estimated relative force accuracy = 5.3550243e-06
  using double precision KISS FFT
  3d grid and FFT values/proc = 15625 5832
Generated 0 of 21 mixed pair_coeff terms from geometric mixing rule
Per MPI rank memory allocation (min/avg/max) = 9.773 | 9.773 | 9.773 Mbytes
   Step          Temp          E_pair         E_mol          TotEng         Press     
        76   8640.811       1.855249       0.032065011    4.1211389      175.24629    
        77   8802.1084      1.7130557      0.13239172     4.120971       112.84848    
Loop time of 0.00278831 on 1 procs for 1 steps with 3 atoms

run 1 pre yes post no
PPPM initialization ...
  using 12-bit tables for long-range coulomb (src/kspace.cpp:342)
  G vector (1/distance) = 0.28934131
  grid = 18 18 18
  stencil order = 5
  estimated absolute RMS force accuracy = 7.7110449e-05
  estimated relative force accuracy = 5.3550243e-06
  using double precision KISS FFT
  3d grid and FFT values/proc = 15625 5832
Generated 0 of 21 mixed pair_coeff terms from geometric mixing rule
Per MPI rank memory allocation (min/avg/max) = 9.773 | 9.773 | 9.773 Mbytes
   Step          Temp          E_pair         E_mol          TotEng         Press     
        77   8802.1084      1.7130557      0.13239172     4.120971       112.84848    
        78   8717.5023      1.5663893      0.30185306     4.1218936      42.866857    
Loop time of 0.00285748 on 1 procs for 1 steps with 3 atoms

run 1 pre yes post no
PPPM initialization ...
  using 12-bit tables for long-range coulomb (src/kspace.cpp:342)
  G vector (1/distance) = 0.28934131
  grid = 18 18 18
  stencil order = 5
  estimated absolute RMS force accuracy = 7.7110449e-05
  estimated relative force accuracy = 5.3550243e-06
  using double precision KISS FFT
  3d grid and FFT values/proc = 15625 5832
Generated 0 of 21 mixed pair_coeff terms from geometric mixing rule
Per MPI rank memory allocation (min/avg/max) = 9.773 | 9.773 | 9.773 Mbytes
   Step          Temp          E_pair         E_mol          TotEng         Press     
        78   8717.5023      1.5663893      0.30185306     4.1218936      42.866857    
        79   8406.7535      1.4186901      0.53679815     4.1288046     -32.45653     
Loop time of 0.00251979 on 1 procs for 1 steps with 3 atoms

run 1 pre yes post no
PPPM initialization ...
  using 12-bit tables for long-range coulomb (src/kspace.cpp:342)
  G vector (1/distance) = 0.28934131
  grid = 18 18 18
  stencil order = 5
  estimated absolute RMS force accuracy = 7.7110449e-05
  estimated relative force accuracy = 5.3550243e-06
  using double precision KISS FFT
  3d grid and FFT values/proc = 15625 5832
Generated 0 of 21 mixed pair_coeff terms from geometric mixing rule
Per MPI rank memory allocation (min/avg/max) = 9.773 | 9.773 | 9.773 Mbytes
   Step          Temp          E_pair         E_mol          TotEng         Press     
        79   8406.7535      1.4186901      0.53679815     4.1288046     -32.45653     
        80   7954.9408      1.2740889      0.82977092     4.1603734     -109.43707    
Loop time of 0.00241166 on 1 procs for 1 steps with 3 atoms

run 1 pre yes post no
PPPM initialization ...
  using 12-bit tables for long-range coulomb (src/kspace.cpp:342)
  G vector (1/distance) = 0.28934131
  grid = 18 18 18
  stencil order = 5
  estimated absolute RMS force accuracy = 7.7110449e-05
  estimated relative force accuracy = 5.3550243e-06
  using double precision KISS FFT
  3d grid and FFT values/proc = 15625 5832
Generated 0 of 21 mixed pair_coeff terms from geometric mixing rule
Per MPI rank memory allocation (min/avg/max) = 9.773 | 9.773 | 9.773 Mbytes
   Step          Temp          E_pair         E_mol          TotEng         Press     
        80   7954.9408      1.2740889      0.82977092     4.1603734     -109.43707    
        81   7541.4005      1.136666       1.1725946      4.2588656     -182.90972    
Loop time of 0.00245479 on 1 procs for 1 steps with 3 atoms

run 1 pre yes post no
PPPM initialization ...
  using 12-bit tables for long-range coulomb (src/kspace.cpp:342)
  G vector (1/distance) = 0.28934131
  grid = 18 18 18
  stencil order = 5
  estimated absolute RMS force accuracy = 7.7110449e-05
  estimated relative force accuracy = 5.3550243e-06
  using double precision KISS FFT
  3d grid and FFT values/proc = 15625 5832
Generated 0 of 21 mixed pair_coeff terms from geometric mixing rule
Per MPI rank memory allocation (min/avg/max) = 9.773 | 9.773 | 9.773 Mbytes
   Step          Temp          E_pair         E_mol          TotEng         Press     
        81   7541.4005      1.136666       1.1725946      4.2588656     -182.90972    
        82   7351.4642      1.0096022      1.5626043      4.4727092     -248.27328    
Loop time of 0.00248443 on 1 procs for 1 steps with 3 atoms

run 1 pre yes post no
PPPM initialization ...
  using 12-bit tables for long-range coulomb (src/kspace.cpp:342)
  G vector (1/distance) = 0.28934131
  grid = 18 18 18
  stencil order = 5
  estimated absolute RMS force accuracy = 7.7110449e-05
  estimated relative force accuracy = 5.3550243e-06
  using double precision KISS FFT
  3d grid and FFT values/proc = 15625 5832
Generated 0 of 21 mixed pair_coeff terms from geometric mixing rule
Per MPI rank memory allocation (min/avg/max) = 9.773 | 9.773 | 9.773 Mbytes
   Step          Temp          E_pair         E_mol          TotEng         Press     
        82   7351.4642      1.0096022      1.5626043      4.4727092     -248.27328    
        83   7374.1636      0.89688412     2.0053313      4.8085863     -304.22131    
Loop time of 0.00301688 on 1 procs for 1 steps with 3 atoms

run 1 pre yes post no
PPPM initialization ...
  using 12-bit tables for long-range coulomb (src/kspace.cpp:342)
  G vector (1/distance) = 0.28934131
  grid = 18 18 18
  stencil order = 5
  estimated absolute RMS force accuracy = 7.7110449e-05
  estimated relative force accuracy = 5.3550243e-06
  using double precision KISS FFT
  3d grid and FFT values/proc = 15625 5832
Generated 0 of 21 mixed pair_coeff terms from geometric mixing rule
Per MPI rank memory allocation (min/avg/max) = 9.773 | 9.773 | 9.773 Mbytes
   Step          Temp          E_pair         E_mol          TotEng         Press     
        83   7374.1636      0.89688412     2.0053313      4.8085863     -304.22131    
        84   7465.9242      0.80805209     2.5050745      5.2432194     -349.34512    
Loop time of 0.00272892 on 1 procs for 1 steps with 3 atoms

run 0 pre yes post no
PPPM initialization ...
  using 12-bit tables for long-range coulomb (src/kspace.cpp:342)
  G vector (1/distance) = 0.28934131
  grid = 18 18 18
  stencil order = 5
  estimated absolute RMS force accuracy = 7.7110449e-05
  estimated relative force accuracy = 5.3550243e-06
  using double precision KISS FFT
  3d grid and FFT values/proc = 15625 5832
Generated 0 of 21 mixed pair_coeff terms from geometric mixing rule
Per MPI rank memory allocation (min/avg/max) = 9.773 | 9.773 | 9.773 Mbytes
   Step          Temp          E_pair         E_mol          TotEng         Press     
        84   7465.9242      0.80805209     2.5050745      5.2432194     -349.34512    
Loop time of 1.333e-06 on 1 procs for 0 steps with 3 atoms

run 0 pre yes post no
PPPM initialization ...
  using 12-bit tables for long-range coulomb (src/kspace.cpp:342)
  G vector (1/distance) = 0.28934131
  grid = 18 18 18
  stencil order = 5
  estimated absolute RMS force accuracy = 7.7110449e-05
  estimated relative force accuracy = 5.3550243e-06
  using double precision KISS FFT
  3d grid and FFT values/proc = 15625 5832
Generated 0 of 21 mixed pair_coeff terms from geometric mixing rule
Per MPI rank memory allocation (min/avg/max) = 9.773 | 9.773 | 9.773 Mbytes
   Step          Temp          E_pair         E_mol          TotEng         Press     
        84   7465.9242      0.80805209     2.5050745      5.2432194     -349.34512    
Loop time of 5.82e-07 on 1 procs for 0 steps with 3 atoms

clear
OMP_NUM_THREADS environment is not set. Defaulting to 1 thread. (src/comm.cpp:98)
  using 1 OpenMP thread(s) per MPI task
units metal
atom_style full
boundary p p p
read_data /tmp/mustard.1db41283f1a74d1b97c38b9120794fbd
Reading data file ...
  triclinic box = (0 0 0) to (25.319 25.319 25.319) with tilt (0 0 0)
  1 by 1 by 1 MPI processor grid
  reading atoms ...
  3 atoms
  reading velocities ...
  3 velocities
  scanning bonds ...
  1 = max bonds/atom
  reading bonds ...
  1 bonds
Finding 1-2 1-3 1-4 neighbors ...
  special bond factors lj:    0        0        0       
  special bond factors coul:  0        0        0       
     1 = max # of 1-2 neighbors
     0 = max # of 1-3 neighbors
     0 = max # of 1-4 neighbors
     1 = max # of special neighbors
  special bonds CPU = 0.000 seconds
  read_data CPU = 0.001 seconds

change_box all triclinic
Changing box ...
  triclinic box = (0 0 0) to (25.319 25.319 25.319) with tilt (0 0 0)
include ff.lmp
##############################################################################################
#### Atoms' types - mass - charge
##############################################################################################
#@ 7   atom types

variable Ba  equal 1
variable Zr  equal 2
variable  Y  equal 3
variable O1  equal 4
variable O2  equal 5
variable O3  equal 6
variable H1  equal 7

##############################################################################################
#### Atoms' masses
##############################################################################################

mass  ${Ba}   137.327
mass  1   137.327
mass  ${Zr}    91.224
mass  2    91.224
mass  ${Y}     88.910
mass  3     88.910
mass  ${O1}    100000
mass  4    100000
# mass  ${O1}    15.996
mass  ${O2}    100000
mass  5    100000
# mass  ${O2}    15.996
mass  ${O3}    15.996
mass  6    15.996
mass  ${H1}     1.008
mass  7     1.008

##############################################################################################
#### Atoms' charges
##############################################################################################

set type ${Ba}  charge     2.000000
set type 1  charge     2.000000
Setting atom values ...
  0 settings made for charge
set type ${Zr}  charge     4.000000
set type 2  charge     4.000000
Setting atom values ...
  0 settings made for charge
set type ${Y}   charge     3.000000
set type 3   charge     3.000000
Setting atom values ...
  0 settings made for charge
set type ${O1}  charge    -1.308698
set type 4  charge    -1.308698
Setting atom values ...
  1 settings made for charge
set type ${O2}  charge    -2.000000
set type 5  charge    -2.000000
Setting atom values ...
  1 settings made for charge
set type ${O3}  charge    -2.000000
set type 6  charge    -2.000000
Setting atom values ...
  0 settings made for charge
set type ${H1}  charge     0.308698
set type 7  charge     0.308698
Setting atom values ...
  1 settings made for charge

##############################################################################################
#### Covalent bonds parameters
##############################################################################################
#@  1   bond types

bond_style harmonic
#@ O1 - H1
# bond_coeff   1      11.504000      0.985357
bond_coeff   1      23.008000      0.985357

##############################################################################################
# Pair potentials
##############################################################################################

variable rmin  equal  8.
variable rmax  equal 10.

pair_style hybrid/overlay buck/mdf ${rmin} ${rmax} lennard/mdf ${rmin} ${rmax} coul/long ${rmax}
pair_style hybrid/overlay buck/mdf 8 ${rmax} lennard/mdf ${rmin} ${rmax} coul/long ${rmax}
pair_style hybrid/overlay buck/mdf 8 10 lennard/mdf ${rmin} ${rmax} coul/long ${rmax}
pair_style hybrid/overlay buck/mdf 8 10 lennard/mdf 8 ${rmax} coul/long ${rmax}
pair_style hybrid/overlay buck/mdf 8 10 lennard/mdf 8 10 coul/long ${rmax}
pair_style hybrid/overlay buck/mdf 8 10 lennard/mdf 8 10 coul/long 10

##############################################################################################
# Buckingham interaction potentials
pair_coeff  ${Ba}  ${O1}  buck/mdf   688.21662   0.392014   0.000
pair_coeff  1  ${O1}  buck/mdf   688.21662   0.392014   0.000
pair_coeff  1  4  buck/mdf   688.21662   0.392014   0.000
pair_coeff  ${Ba}  ${O2}  buck/mdf   972.19945   0.392014   0.000
pair_coeff  1  ${O2}  buck/mdf   972.19945   0.392014   0.000
pair_coeff  1  5  buck/mdf   972.19945   0.392014   0.000
pair_coeff  ${Ba}  ${O3}  buck/mdf   972.19945   0.392014   0.000
pair_coeff  1  ${O3}  buck/mdf   972.19945   0.392014   0.000
pair_coeff  1  6  buck/mdf   972.19945   0.392014   0.000

pair_coeff  ${Y}   ${O1}  buck/mdf   2972.3808   0.267317   0.000
pair_coeff  3   ${O1}  buck/mdf   2972.3808   0.267317   0.000
pair_coeff  3   4  buck/mdf   2972.3808   0.267317   0.000
pair_coeff  ${Y}   ${O2}  buck/mdf   4121.8373   0.280386   0.000
pair_coeff  3   ${O2}  buck/mdf   4121.8373   0.280386   0.000
pair_coeff  3   5  buck/mdf   4121.8373   0.280386   0.000
pair_coeff  ${Y}   ${O3}  buck/mdf   4121.8373   0.280386   0.000
pair_coeff  3   ${O3}  buck/mdf   4121.8373   0.280386   0.000
pair_coeff  3   6  buck/mdf   4121.8373   0.280386   0.000

pair_coeff  ${Zr}  ${O1}  buck/mdf   2195.8712   0.298760   0.000
pair_coeff  2  ${O1}  buck/mdf   2195.8712   0.298760   0.000
pair_coeff  2  4  buck/mdf   2195.8712   0.298760   0.000
pair_coeff  ${Zr}  ${O2}  buck/mdf   3250.8545   0.298760   0.000
pair_coeff  2  ${O2}  buck/mdf   3250.8545   0.298760   0.000
pair_coeff  2  5  buck/mdf   3250.8545   0.298760   0.000
pair_coeff  ${Zr}  ${O3}  buck/mdf   3250.8545   0.298760   0.000
pair_coeff  2  ${O3}  buck/mdf   3250.8545   0.298760   0.000
pair_coeff  2  6  buck/mdf   3250.8545   0.298760   0.000

pair_coeff  ${O1}  ${O1}  buck/mdf   22764.000   0.149000   0.000
pair_coeff  4  ${O1}  buck/mdf   22764.000   0.149000   0.000
pair_coeff  4  4  buck/mdf   22764.000   0.149000   0.000
pair_coeff  ${O1}  ${O2}  buck/mdf   22764.000   0.149000   0.000
pair_coeff  4  ${O2}  buck/mdf   22764.000   0.149000   0.000
pair_coeff  4  5  buck/mdf   22764.000   0.149000   0.000
pair_coeff  ${O1}  ${O3}  buck/mdf   22764.000   0.149000   0.000
pair_coeff  4  ${O3}  buck/mdf   22764.000   0.149000   0.000
pair_coeff  4  6  buck/mdf   22764.000   0.149000   0.000

pair_coeff  ${O2}  ${O2}  buck/mdf   22764.000   0.149000   0.000
pair_coeff  5  ${O2}  buck/mdf   22764.000   0.149000   0.000
pair_coeff  5  5  buck/mdf   22764.000   0.149000   0.000
pair_coeff  ${O2}  ${O3}  buck/mdf   22764.000   0.149000   0.000
pair_coeff  5  ${O3}  buck/mdf   22764.000   0.149000   0.000
pair_coeff  5  6  buck/mdf   22764.000   0.149000   0.000

pair_coeff  ${O3}  ${O3}  buck/mdf   22764.000   0.149000   0.000
pair_coeff  6  ${O3}  buck/mdf   22764.000   0.149000   0.000
pair_coeff  6  6  buck/mdf   22764.000   0.149000   0.000

##############################################################################################
# 12-6 Lennard-Jones potentials
pair_coeff  ${O1}  ${H1}  lennard/mdf    6.391   0.000
pair_coeff  4  ${H1}  lennard/mdf    6.391   0.000
pair_coeff  4  7  lennard/mdf    6.391   0.000
pair_coeff  ${O2}  ${H1}  lennard/mdf    6.391   0.000
pair_coeff  5  ${H1}  lennard/mdf    6.391   0.000
pair_coeff  5  7  lennard/mdf    6.391   0.000
pair_coeff  ${O3}  ${H1}  lennard/mdf    7.800   0.000
pair_coeff  6  ${H1}  lennard/mdf    7.800   0.000
pair_coeff  6  7  lennard/mdf    7.800   0.000

##############################################################################################
# Coulombic interaction
pair_coeff      *      *  coul/long

#########################################################################################################
# Parameters for reciprocal space electrostatics
#########################################################################################################

kspace_style pppm 1.0e-5
kspace_modify fftbench no
fix md all nve
timestep 0.0002

change_box all x final 0.0 25.319 y final 0.0 25.319 z final 0.0 25.319 xy final 0.0 xz final 0.0 yz final 0.0
Changing box ...
  triclinic box = (0 0 0) to (25.319 25.319 25.319) with tilt (0 0 0)
  triclinic box = (0 0 0) to (25.319 25.319 25.319) with tilt (0 0 0)
  triclinic box = (0 0 0) to (25.319 25.319 25.319) with tilt (0 0 0)
  triclinic box = (0 0 0) to (25.319 25.319 25.319) with tilt (0 0 0)
  triclinic box = (0 0 0) to (25.319 25.319 25.319) with tilt (0 0 0)
  triclinic box = (0 0 0) to (25.319 25.319 25.319) with tilt (0 0 0)
fix ux all store/state 1 xu yu zu
fix ext all external pf/callback 1 1
fix_modify ext energy no
fix_modify ext virial no
compute get_pe all pe

run 0 pre yes post no
PPPM initialization ...
WARNING: System is not charge neutral, net charge = -3 (src/kspace.cpp:327)
  using 12-bit tables for long-range coulomb (src/kspace.cpp:342)
  G vector (1/distance) = 0.28934131
  grid = 18 18 18
  stencil order = 5
  estimated absolute RMS force accuracy = 7.7110449e-05
  estimated relative force accuracy = 5.3550243e-06
  using double precision KISS FFT
  3d grid and FFT values/proc = 15625 5832
Generated 0 of 21 mixed pair_coeff terms from geometric mixing rule
Neighbor list info ...
  update: every = 1 steps, delay = 0 steps, check = yes
  max neighbors/atom: 2000, page size: 100000
  master list distance cutoff = 12
  ghost atom cutoff = 12
  binsize = 6, bins = 5 5 5
  3 neighbor lists, perpetual/occasional/extra = 3 0 0
  (1) pair buck/mdf, perpetual, skip from (3)
      attributes: half, newton on
      pair build: skip
      stencil: none
      bin: none
  (2) pair lennard/mdf, perpetual, skip from (3)
      attributes: half, newton on
      pair build: skip
      stencil: none
      bin: none
  (3) pair coul/long, perpetual
      attributes: half, newton on
      pair build: half/bin/newton/tri
      stencil: half/bin/3d/tri
      bin: standard
Per MPI rank memory allocation (min/avg/max) = 9.773 | 9.773 | 9.773 Mbytes
   Step          Temp          E_pair         E_mol          TotEng         Press     
         0   7418.8819      0.93609572     1.7892677      4.6432949     -275.10342    
Loop time of 9.02e-07 on 1 procs for 0 steps with 3 atoms

run 0 pre yes post no
PPPM initialization ...
  using 12-bit tables for long-range coulomb (src/kspace.cpp:342)
  G vector (1/distance) = 0.28934131
  grid = 18 18 18
  stencil order = 5
  estimated absolute RMS force accuracy = 7.7110449e-05
  estimated relative force accuracy = 5.3550243e-06
  using double precision KISS FFT
  3d grid and FFT values/proc = 15625 5832
Generated 0 of 21 mixed pair_coeff terms from geometric mixing rule
Per MPI rank memory allocation (min/avg/max) = 9.773 | 9.773 | 9.773 Mbytes
   Step          Temp          E_pair         E_mol          TotEng         Press     
         0   7418.8819      0.93609572     1.7892677      4.6432949     -275.10342    
Loop time of 4.71e-07 on 1 procs for 0 steps with 3 atoms

run 1 pre yes post no
PPPM initialization ...
  using 12-bit tables for long-range coulomb (src/kspace.cpp:342)
  G vector (1/distance) = 0.28934131
  grid = 18 18 18
  stencil order = 5
  estimated absolute RMS force accuracy = 7.7110449e-05
  estimated relative force accuracy = 5.3550243e-06
  using double precision KISS FFT
  3d grid and FFT values/proc = 15625 5832
Generated 0 of 21 mixed pair_coeff terms from geometric mixing rule
Per MPI rank memory allocation (min/avg/max) = 9.773 | 9.773 | 9.773 Mbytes
   Step          Temp          E_pair         E_mol          TotEng         Press     
         0   7465.9242      0.93609572     1.7892677      4.6554563     -274.3031     
         1   7658.1605      1.0465019      1.3411455      4.3674373     -205.32961    
Loop time of 0.00358937 on 1 procs for 1 steps with 3 atoms

run 1 pre yes post no
PPPM initialization ...
  using 12-bit tables for long-range coulomb (src/kspace.cpp:342)
  G vector (1/distance) = 0.28934131
  grid = 18 18 18
  stencil order = 5
  estimated absolute RMS force accuracy = 7.7110449e-05
  estimated relative force accuracy = 5.3550243e-06
  using double precision KISS FFT
  3d grid and FFT values/proc = 15625 5832
Generated 0 of 21 mixed pair_coeff terms from geometric mixing rule
Per MPI rank memory allocation (min/avg/max) = 9.773 | 9.773 | 9.773 Mbytes
   Step          Temp          E_pair         E_mol          TotEng         Press     
         1   7658.1605      1.0465019      1.3411455      4.3674373     -205.32961    
         2   8060.7311      1.1690707      0.95219175     4.205125      -129.07512    
Loop time of 0.00383838 on 1 procs for 1 steps with 3 atoms

run 1 pre yes post no
PPPM initialization ...
  using 12-bit tables for long-range coulomb (src/kspace.cpp:342)
  G vector (1/distance) = 0.28934131
  grid = 18 18 18
  stencil order = 5
  estimated absolute RMS force accuracy = 7.7110449e-05
  estimated relative force accuracy = 5.3550243e-06
  using double precision KISS FFT
  3d grid and FFT values/proc = 15625 5832
Generated 0 of 21 mixed pair_coeff terms from geometric mixing rule
Per MPI rank memory allocation (min/avg/max) = 9.773 | 9.773 | 9.773 Mbytes
   Step          Temp          E_pair         E_mol          TotEng         Press     
         2   8060.7311      1.1690707      0.95219175     4.205125      -129.07512    
         3   8581.7194      1.3013823      0.62091213     4.1408431     -48.133853    
Loop time of 0.0045191 on 1 procs for 1 steps with 3 atoms

run 1 pre yes post no
PPPM initialization ...
  using 12-bit tables for long-range coulomb (src/kspace.cpp:342)
  G vector (1/distance) = 0.28934131
  grid = 18 18 18
  stencil order = 5
  estimated absolute RMS force accuracy = 7.7110449e-05
  estimated relative force accuracy = 5.3550243e-06
  using double precision KISS FFT
  3d grid and FFT values/proc = 15625 5832
Generated 0 of 21 mixed pair_coeff terms from geometric mixing rule
Per MPI rank memory allocation (min/avg/max) = 9.773 | 9.773 | 9.773 Mbytes
   Step          Temp          E_pair         E_mol          TotEng         Press     
         3   8581.7194      1.3013823      0.62091213     4.1408431     -48.133853    
         4   9011.5096      1.4401603      0.3536458      4.1234642      32.267831    
Loop time of 0.00437905 on 1 procs for 1 steps with 3 atoms

run 1 pre yes post no
PPPM initialization ...
  using 12-bit tables for long-range coulomb (src/kspace.cpp:342)
  G vector (1/distance) = 0.28934131
  grid = 18 18 18
  stencil order = 5
  estimated absolute RMS force accuracy = 7.7110449e-05
  estimated relative force accuracy = 5.3550243e-06
  using double precision KISS FFT
  3d grid and FFT values/proc = 15625 5832
Generated 0 of 21 mixed pair_coeff terms from geometric mixing rule
Per MPI rank memory allocation (min/avg/max) = 9.773 | 9.773 | 9.773 Mbytes
   Step          Temp          E_pair         E_mol          TotEng         Press     
         4   9011.5096      1.4401603      0.3536458      4.1234642      32.267831    
         5   9208.746       1.5811384      0.15864195     4.1204281      107.52007    
Loop time of 0.0042991 on 1 procs for 1 steps with 3 atoms

run 1 pre yes post no
PPPM initialization ...
  using 12-bit tables for long-range coulomb (src/kspace.cpp:342)
  G vector (1/distance) = 0.28934131
  grid = 18 18 18
  stencil order = 5
  estimated absolute RMS force accuracy = 7.7110449e-05
  estimated relative force accuracy = 5.3550243e-06
  using double precision KISS FFT
  3d grid and FFT values/proc = 15625 5832
Generated 0 of 21 mixed pair_coeff terms from geometric mixing rule
Per MPI rank memory allocation (min/avg/max) = 9.773 | 9.773 | 9.773 Mbytes
   Step          Temp          E_pair         E_mol          TotEng         Press     
         5   9208.746       1.5811384      0.15864195     4.1204281      107.52007    
         6   9126.253       1.7201932      0.040834549    4.1203493      174.71739    
Loop time of 0.0031167 on 1 procs for 1 steps with 3 atoms

run 1 pre yes post no
PPPM initialization ...
  using 12-bit tables for long-range coulomb (src/kspace.cpp:342)
  G vector (1/distance) = 0.28934131
  grid = 18 18 18
  stencil order = 5
  estimated absolute RMS force accuracy = 7.7110449e-05
  estimated relative force accuracy = 5.3550243e-06
  using double precision KISS FFT
  3d grid and FFT values/proc = 15625 5832
Generated 0 of 21 mixed pair_coeff terms from geometric mixing rule
Per MPI rank memory allocation (min/avg/max) = 9.773 | 9.773 | 9.773 Mbytes
   Step          Temp          E_pair         E_mol          TotEng         Press     
         6   9126.253       1.7201932      0.040834549    4.1203493      174.71739    
         7   8768.5368      1.8539234      8.8176951e-05  4.1208562      232.2696     
Loop time of 0.00299269 on 1 procs for 1 steps with 3 atoms

run 1 pre yes post no
PPPM initialization ...
  using 12-bit tables for long-range coulomb (src/kspace.cpp:342)
  G vector (1/distance) = 0.28934131
  grid = 18 18 18
  stencil order = 5
  estimated absolute RMS force accuracy = 7.7110449e-05
  estimated relative force accuracy = 5.3550243e-06
  using double precision KISS FFT
  3d grid and FFT values/proc = 15625 5832
Generated 0 of 21 mixed pair_coeff terms from geometric mixing rule
Per MPI rank memory allocation (min/avg/max) = 9.773 | 9.773 | 9.773 Mbytes
   Step          Temp          E_pair         E_mol          TotEng         Press     
         7   8768.5368      1.8539234      8.8176951e-05  4.1208562      232.2696     
         8   8164.8412      1.979722       0.031131579    4.1216307      279.50952    
Loop time of 0.00261257 on 1 procs for 1 steps with 3 atoms

run 1 pre yes post no
PPPM initialization ...
  using 12-bit tables for long-range coulomb (src/kspace.cpp:342)
  G vector (1/distance) = 0.28934131
  grid = 18 18 18
  stencil order = 5
  estimated absolute RMS force accuracy = 7.7110449e-05
  estimated relative force accuracy = 5.3550243e-06
  using double precision KISS FFT
  3d grid and FFT values/proc = 15625 5832
Generated 0 of 21 mixed pair_coeff terms from geometric mixing rule
Per MPI rank memory allocation (min/avg/max) = 9.773 | 9.773 | 9.773 Mbytes
   Step          Temp          E_pair         E_mol          TotEng         Press     
         8   8164.8412      1.979722       0.031131579    4.1216307      279.50952    
         9   7360.6155      2.0956773      0.12406413     4.1226099      316.51563    
Loop time of 0.0025833 on 1 procs for 1 steps with 3 atoms

run 1 pre yes post no
PPPM initialization ...
  using 12-bit tables for long-range coulomb (src/kspace.cpp:342)
  G vector (1/distance) = 0.28934131
  grid = 18 18 18
  stencil order = 5
  estimated absolute RMS force accuracy = 7.7110449e-05
  estimated relative force accuracy = 5.3550243e-06
  using double precision KISS FFT
  3d grid and FFT values/proc = 15625 5832
Generated 0 of 21 mixed pair_coeff terms from geometric mixing rule
Per MPI rank memory allocation (min/avg/max) = 9.773 | 9.773 | 9.773 Mbytes
   Step          Temp          E_pair         E_mol          TotEng         Press     
         9   7360.6155      2.0956773      0.12406413     4.1226099      316.51563    
        10   6413.9175      2.2004393      0.26516779     4.1237349      343.98593    
Loop time of 0.00267299 on 1 procs for 1 steps with 3 atoms

run 1 pre yes post no
PPPM initialization ...
  using 12-bit tables for long-range coulomb (src/kspace.cpp:342)
  G vector (1/distance) = 0.28934131
  grid = 18 18 18
  stencil order = 5
  estimated absolute RMS force accuracy = 7.7110449e-05
  estimated relative force accuracy = 5.3550243e-06
  using double precision KISS FFT
  3d grid and FFT values/proc = 15625 5832
Generated 0 of 21 mixed pair_coeff terms from geometric mixing rule
Per MPI rank memory allocation (min/avg/max) = 9.773 | 9.773 | 9.773 Mbytes
   Step          Temp          E_pair         E_mol          TotEng         Press     
        10   6413.9175      2.2004393      0.26516779     4.1237349      343.98593    
        11   5391.7559      2.2930976      0.43796001     4.1249359      363.0964     
Loop time of 0.00262734 on 1 procs for 1 steps with 3 atoms

run 1 pre yes post no
PPPM initialization ...
  using 12-bit tables for long-range coulomb (src/kspace.cpp:342)
  G vector (1/distance) = 0.28934131
  grid = 18 18 18
  stencil order = 5
  estimated absolute RMS force accuracy = 7.7110449e-05
  estimated relative force accuracy = 5.3550243e-06
  using double precision KISS FFT
  3d grid and FFT values/proc = 15625 5832
Generated 0 of 21 mixed pair_coeff terms from geometric mixing rule
Per MPI rank memory allocation (min/avg/max) = 9.773 | 9.773 | 9.773 Mbytes
   Step          Temp          E_pair         E_mol          TotEng         Press     
        11   5391.7559      2.2930976      0.43796001     4.1249359      363.0964     
        12   4365.7396      2.3730722      0.62442822     4.1261327      375.3399     
Loop time of 0.00362475 on 1 procs for 1 steps with 3 atoms

run 1 pre yes post no
PPPM initialization ...
  using 12-bit tables for long-range coulomb (src/kspace.cpp:342)
  G vector (1/distance) = 0.28934131
  grid = 18 18 18
  stencil order = 5
  estimated absolute RMS force accuracy = 7.7110449e-05
  estimated relative force accuracy = 5.3550243e-06
  using double precision KISS FFT
  3d grid and FFT values/proc = 15625 5832
Generated 0 of 21 mixed pair_coeff terms from geometric mixing rule
Per MPI rank memory allocation (min/avg/max) = 9.773 | 9.773 | 9.773 Mbytes
   Step          Temp          E_pair         E_mol          TotEng         Press     
        12   4365.7396      2.3730722      0.62442822     4.1261327      375.3399     
        13   3407.2453      2.440031       0.80637009     4.1272432      382.35489    
Loop time of 0.00327973 on 1 procs for 1 steps with 3 atoms

run 1 pre yes post no
PPPM initialization ...
  using 12-bit tables for long-range coulomb (src/kspace.cpp:342)
  G vector (1/distance) = 0.28934131
  grid = 18 18 18
  stencil order = 5
  estimated absolute RMS force accuracy = 7.7110449e-05
  estimated relative force accuracy = 5.3550243e-06
  using double precision KISS FFT
  3d grid and FFT values/proc = 15625 5832
Generated 0 of 21 mixed pair_coeff terms from geometric mixing rule
Per MPI rank memory allocation (min/avg/max) = 9.773 | 9.773 | 9.773 Mbytes
   Step          Temp          E_pair         E_mol          TotEng         Press     
        13   3407.2453      2.440031       0.80637009     4.1272432      382.35489    
        14   2582.4483      2.4938236      0.96674955     4.1281885      385.75419    
Loop time of 0.00276021 on 1 procs for 1 steps with 3 atoms

run 1 pre yes post no
PPPM initialization ...
  using 12-bit tables for long-range coulomb (src/kspace.cpp:342)
  G vector (1/distance) = 0.28934131
  grid = 18 18 18
  stencil order = 5
  estimated absolute RMS force accuracy = 7.7110449e-05
  estimated relative force accuracy = 5.3550243e-06
  using double precision KISS FFT
  3d grid and FFT values/proc = 15625 5832
Generated 0 of 21 mixed pair_coeff terms from geometric mixing rule
Per MPI rank memory allocation (min/avg/max) = 9.773 | 9.773 | 9.773 Mbytes
   Step          Temp          E_pair         E_mol          TotEng         Press     
        14   2582.4483      2.4938236      0.96674955     4.1281885      385.75419    
        15   1947.6057      2.534432       1.090971       4.1288986      386.96543    
Loop time of 0.00265332 on 1 procs for 1 steps with 3 atoms

run 1 pre yes post no
PPPM initialization ...
  using 12-bit tables for long-range coulomb (src/kspace.cpp:342)
  G vector (1/distance) = 0.28934131
  grid = 18 18 18
  stencil order = 5
  estimated absolute RMS force accuracy = 7.7110449e-05
  estimated relative force accuracy = 5.3550243e-06
  using double precision KISS FFT
  3d grid and FFT values/proc = 15625 5832
Generated 0 of 21 mixed pair_coeff terms from geometric mixing rule
Per MPI rank memory allocation (min/avg/max) = 9.773 | 9.773 | 9.773 Mbytes
   Step          Temp          E_pair         E_mol          TotEng         Press     
        15   1947.6057      2.534432       1.090971       4.1288986      386.96543    
        16   1544.9769      2.5619417      1.1679737      4.1293233      387.09499    
Loop time of 0.00150138 on 1 procs for 1 steps with 3 atoms

run 1 pre yes post no
PPPM initialization ...
  using 12-bit tables for long-range coulomb (src/kspace.cpp:342)
  G vector (1/distance) = 0.28934131
  grid = 18 18 18
  stencil order = 5
  estimated absolute RMS force accuracy = 7.7110449e-05
  estimated relative force accuracy = 5.3550243e-06
  using double precision KISS FFT
  3d grid and FFT values/proc = 15625 5832
Generated 0 of 21 mixed pair_coeff terms from geometric mixing rule
Per MPI rank memory allocation (min/avg/max) = 9.773 | 9.773 | 9.773 Mbytes
   Step          Temp          E_pair         E_mol          TotEng         Press     
        16   1544.9769      2.5619417      1.1679737      4.1293233      387.09499    
        17   1399.734       2.5765151      1.1910566      4.1294314      386.82504    
Loop time of 0.00125917 on 1 procs for 1 steps with 3 atoms

run 1 pre yes post no
PPPM initialization ...
  using 12-bit tables for long-range coulomb (src/kspace.cpp:342)
  G vector (1/distance) = 0.28934131
  grid = 18 18 18
  stencil order = 5
  estimated absolute RMS force accuracy = 7.7110449e-05
  estimated relative force accuracy = 5.3550243e-06
  using double precision KISS FFT
  3d grid and FFT values/proc = 15625 5832
Generated 0 of 21 mixed pair_coeff terms from geometric mixing rule
Per MPI rank memory allocation (min/avg/max) = 9.773 | 9.773 | 9.773 Mbytes
   Step          Temp          E_pair         E_mol          TotEng         Press     
        17   1399.734       2.5765151      1.1910566      4.1294314      386.82504    
        18   1518.1389      2.5783824      1.1583652      4.1292173      386.35274    
Loop time of 0.00107629 on 1 procs for 1 steps with 3 atoms

run 1 pre yes post no
PPPM initialization ...
  using 12-bit tables for long-range coulomb (src/kspace.cpp:342)
  G vector (1/distance) = 0.28934131
  grid = 18 18 18
  stencil order = 5
  estimated absolute RMS force accuracy = 7.7110449e-05
  estimated relative force accuracy = 5.3550243e-06
  using double precision KISS FFT
  3d grid and FFT values/proc = 15625 5832
Generated 0 of 21 mixed pair_coeff terms from geometric mixing rule
Per MPI rank memory allocation (min/avg/max) = 9.773 | 9.773 | 9.773 Mbytes
   Step          Temp          E_pair         E_mol          TotEng         Press     
        18   1518.1389      2.5783824      1.1583652      4.1292173      386.35274    
        19   1887.1484      2.5678351      1.0729971      4.1286984      385.37569    
Loop time of 0.00108396 on 1 procs for 1 steps with 3 atoms

run 1 pre yes post no
PPPM initialization ...
  using 12-bit tables for long-range coulomb (src/kspace.cpp:342)
  G vector (1/distance) = 0.28934131
  grid = 18 18 18
  stencil order = 5
  estimated absolute RMS force accuracy = 7.7110449e-05
  estimated relative force accuracy = 5.3550243e-06
  using double precision KISS FFT
  3d grid and FFT values/proc = 15625 5832
Generated 0 of 21 mixed pair_coeff terms from geometric mixing rule
Per MPI rank memory allocation (min/avg/max) = 9.773 | 9.773 | 9.773 Mbytes
   Step          Temp          E_pair         E_mol          TotEng         Press     
        19   1887.1484      2.5678351      1.0729971      4.1286984      385.37569    
        20   2475.4808      2.545233       0.94272141     4.1279164      383.12497    
Loop time of 0.00111948 on 1 procs for 1 steps with 3 atoms

run 1 pre yes post no
PPPM initialization ...
  using 12-bit tables for long-range coulomb (src/kspace.cpp:342)
  G vector (1/distance) = 0.28934131
  grid = 18 18 18
  stencil order = 5
  estimated absolute RMS force accuracy = 7.7110449e-05
  estimated relative force accuracy = 5.3550243e-06
  using double precision KISS FFT
  3d grid and FFT values/proc = 15625 5832
Generated 0 of 21 mixed pair_coeff terms from geometric mixing rule
Per MPI rank memory allocation (min/avg/max) = 9.773 | 9.773 | 9.773 Mbytes
   Step          Temp          E_pair         E_mol          TotEng         Press     
        20   2475.4808      2.545233       0.94272141     4.1279164      383.12497    
        21   3236.04        2.5110117      0.77933815     4.1269318      378.44184    
Loop time of 0.00113676 on 1 procs for 1 steps with 3 atoms

run 1 pre yes post no
PPPM initialization ...
  using 12-bit tables for long-range coulomb (src/kspace.cpp:342)
  G vector (1/distance) = 0.28934131
  grid = 18 18 18
  stencil order = 5
  estimated absolute RMS force accuracy = 7.7110449e-05
  estimated relative force accuracy = 5.3550243e-06
  using double precision KISS FFT
  3d grid and FFT values/proc = 15625 5832
Generated 0 of 21 mixed pair_coeff terms from geometric mixing rule
Per MPI rank memory allocation (min/avg/max) = 9.773 | 9.773 | 9.773 Mbytes
   Step          Temp          E_pair         E_mol          TotEng         Press     
        21   3236.04        2.5110117      0.77933815     4.1269318      378.44184    
        22   4109.4751      2.4656972      0.5977377      4.1258176      369.89126    
Loop time of 0.00300523 on 1 procs for 1 steps with 3 atoms

run 1 pre yes post no
PPPM initialization ...
  using 12-bit tables for long-range coulomb (src/kspace.cpp:342)
  G vector (1/distance) = 0.28934131
  grid = 18 18 18
  stencil order = 5
  estimated absolute RMS force accuracy = 7.7110449e-05
  estimated relative force accuracy = 5.3550243e-06
  using double precision KISS FFT
  3d grid and FFT values/proc = 15625 5832
Generated 0 of 21 mixed pair_coeff terms from geometric mixing rule
Per MPI rank memory allocation (min/avg/max) = 9.773 | 9.773 | 9.773 Mbytes
   Step          Temp          E_pair         E_mol          TotEng         Press     
        22   4109.4751      2.4656972      0.5977377      4.1258176      369.89126    
        23   5028.5753      2.4099275      0.41473909     4.1246554      355.90248    
Loop time of 0.00320993 on 1 procs for 1 steps with 3 atoms

run 1 pre yes post no
PPPM initialization ...
  using 12-bit tables for long-range coulomb (src/kspace.cpp:342)
  G vector (1/distance) = 0.28934131
  grid = 18 18 18
  stencil order = 5
  estimated absolute RMS force accuracy = 7.7110449e-05
  estimated relative force accuracy = 5.3550243e-06
  using double precision KISS FFT
  3d grid and FFT values/proc = 15625 5832
Generated 0 of 21 mixed pair_coeff terms from geometric mixing rule
Per MPI rank memory allocation (min/avg/max) = 9.773 | 9.773 | 9.773 Mbytes
   Step          Temp          E_pair         E_mol          TotEng         Press     
        23   5028.5753      2.4099275      0.41473909     4.1246554      355.90248    
        24   5923.1466      2.3444741      0.2478002      4.1235279      334.92506    
Loop time of 0.00268565 on 1 procs for 1 steps with 3 atoms

run 1 pre yes post no
PPPM initialization ...
  using 12-bit tables for long-range coulomb (src/kspace.cpp:342)
  G vector (1/distance) = 0.28934131
  grid = 18 18 18
  stencil order = 5
  estimated absolute RMS force accuracy = 7.7110449e-05
  estimated relative force accuracy = 5.3550243e-06
  using double precision KISS FFT
  3d grid and FFT values/proc = 15625 5832
Generated 0 of 21 mixed pair_coeff terms from geometric mixing rule
Per MPI rank memory allocation (min/avg/max) = 9.773 | 9.773 | 9.773 Mbytes
   Step          Temp          E_pair         E_mol          TotEng         Press     
        24   5923.1466      2.3444741      0.2478002      4.1235279      334.92506    
        25   6725.0117      2.2702661      0.11369528     4.1225133      305.58817    
Loop time of 0.00254829 on 1 procs for 1 steps with 3 atoms

run 1 pre yes post no
PPPM initialization ...
  using 12-bit tables for long-range coulomb (src/kspace.cpp:342)
  G vector (1/distance) = 0.28934131
  grid = 18 18 18
  stencil order = 5
  estimated absolute RMS force accuracy = 7.7110449e-05
  estimated relative force accuracy = 5.3550243e-06
  using double precision KISS FFT
  3d grid and FFT values/proc = 15625 5832
Generated 0 of 21 mixed pair_coeff terms from geometric mixing rule
Per MPI rank memory allocation (min/avg/max) = 9.773 | 9.773 | 9.773 Mbytes
   Step          Temp          E_pair         E_mol          TotEng         Press     
        25   6725.0117      2.2702661      0.11369528     4.1225133      305.58817    
        26   7372.7838      2.1884143      0.027252851    4.1216814      266.85135    
Loop time of 0.0026643 on 1 procs for 1 steps with 3 atoms

run 1 pre yes post no
PPPM initialization ...
  using 12-bit tables for long-range coulomb (src/kspace.cpp:342)
  G vector (1/distance) = 0.28934131
  grid = 18 18 18
  stencil order = 5
  estimated absolute RMS force accuracy = 7.7110449e-05
  estimated relative force accuracy = 5.3550243e-06
  using double precision KISS FFT
  3d grid and FFT values/proc = 15625 5832
Generated 0 of 21 mixed pair_coeff terms from geometric mixing rule
Per MPI rank memory allocation (min/avg/max) = 9.773 | 9.773 | 9.773 Mbytes
   Step          Temp          E_pair         E_mol          TotEng         Press     
        26   7372.7838      2.1884143      0.027252851    4.1216814      266.85135    
        27   7816.1032      2.1002272      0.00023795046  4.1210864      218.13538    
Loop time of 0.00258938 on 1 procs for 1 steps with 3 atoms

run 1 pre yes post no
PPPM initialization ...
  using 12-bit tables for long-range coulomb (src/kspace.cpp:342)
  G vector (1/distance) = 0.28934131
  grid = 18 18 18
  stencil order = 5
  estimated absolute RMS force accuracy = 7.7110449e-05
  estimated relative force accuracy = 5.3550243e-06
  using double precision KISS FFT
  3d grid and FFT values/proc = 15625 5832
Generated 0 of 21 mixed pair_coeff terms from geometric mixing rule
Per MPI rank memory allocation (min/avg/max) = 9.773 | 9.773 | 9.773 Mbytes
   Step          Temp          E_pair         E_mol          TotEng         Press     
        27   7816.1032      2.1002272      0.00023795046  4.1210864      218.13538    
        28   8019.0782      2.0072249      0.040451216    4.1207705      159.42393    
Loop time of 0.00262489 on 1 procs for 1 steps with 3 atoms

run 1 pre yes post no
PPPM initialization ...
  using 12-bit tables for long-range coulomb (src/kspace.cpp:342)
  G vector (1/distance) = 0.28934131
  grid = 18 18 18
  stencil order = 5
  estimated absolute RMS force accuracy = 7.7110449e-05
  estimated relative force accuracy = 5.3550243e-06
  using double precision KISS FFT
  3d grid and FFT values/proc = 15625 5832
Generated 0 of 21 mixed pair_coeff terms from geometric mixing rule
Per MPI rank memory allocation (min/avg/max) = 9.773 | 9.773 | 9.773 Mbytes
   Step          Temp          E_pair         E_mol          TotEng         Press     
        28   8019.0782      2.0072249      0.040451216    4.1207705      159.42393    
        29   7962.7587      1.9111266      0.15110153     4.1207628      91.327644    
Loop time of 0.00260702 on 1 procs for 1 steps with 3 atoms

run 1 pre yes post no
PPPM initialization ...
  using 12-bit tables for long-range coulomb (src/kspace.cpp:342)
  G vector (1/distance) = 0.28934131
  grid = 18 18 18
  stencil order = 5
  estimated absolute RMS force accuracy = 7.7110449e-05
  estimated relative force accuracy = 5.3550243e-06
  using double precision KISS FFT
  3d grid and FFT values/proc = 15625 5832
Generated 0 of 21 mixed pair_coeff terms from geometric mixing rule
Per MPI rank memory allocation (min/avg/max) = 9.773 | 9.773 | 9.773 Mbytes
   Step          Temp          E_pair         E_mol          TotEng         Press     
        29   7962.7587      1.9111266      0.15110153     4.1207628      91.327644    
        30   7646.7233      1.8138329      0.33049242     4.1211584      15.109178    
Loop time of 0.00268973 on 1 procs for 1 steps with 3 atoms

run 1 pre yes post no
PPPM initialization ...
  using 12-bit tables for long-range coulomb (src/kspace.cpp:342)
  G vector (1/distance) = 0.28934131
  grid = 18 18 18
  stencil order = 5
  estimated absolute RMS force accuracy = 7.7110449e-05
  estimated relative force accuracy = 5.3550243e-06
  using double precision KISS FFT
  3d grid and FFT values/proc = 15625 5832
Generated 0 of 21 mixed pair_coeff terms from geometric mixing rule
Per MPI rank memory allocation (min/avg/max) = 9.773 | 9.773 | 9.773 Mbytes
   Step          Temp          E_pair         E_mol          TotEng         Press     
        30   7646.7233      1.8138329      0.33049242     4.1211584      15.109178    
        31   7090.5956      1.717371       0.57205264     4.1224864     -67.322456    
Loop time of 0.00264048 on 1 procs for 1 steps with 3 atoms

run 1 pre yes post no
PPPM initialization ...
  using 12-bit tables for long-range coulomb (src/kspace.cpp:342)
  G vector (1/distance) = 0.28934131
  grid = 18 18 18
  stencil order = 5
  estimated absolute RMS force accuracy = 7.7110449e-05
  estimated relative force accuracy = 5.3550243e-06
  using double precision KISS FFT
  3d grid and FFT values/proc = 15625 5832
Generated 0 of 21 mixed pair_coeff terms from geometric mixing rule
Per MPI rank memory allocation (min/avg/max) = 9.773 | 9.773 | 9.773 Mbytes
   Step          Temp          E_pair         E_mol          TotEng         Press     
        31   7090.5956      1.717371       0.57205264     4.1224864     -67.322456    
        32   6337.0626      1.6237884      0.86477472     4.1268224     -153.43359    
Loop time of 0.00266104 on 1 procs for 1 steps with 3 atoms

run 1 pre yes post no
PPPM initialization ...
  using 12-bit tables for long-range coulomb (src/kspace.cpp:342)
  G vector (1/distance) = 0.28934131
  grid = 18 18 18
  stencil order = 5
  estimated absolute RMS force accuracy = 7.7110449e-05
  estimated relative force accuracy = 5.3550243e-06
  using double precision KISS FFT
  3d grid and FFT values/proc = 15625 5832
Generated 0 of 21 mixed pair_coeff terms from geometric mixing rule
Per MPI rank memory allocation (min/avg/max) = 9.773 | 9.773 | 9.773 Mbytes
   Step          Temp          E_pair         E_mol          TotEng         Press     
        32   6337.0626      1.6237884      0.86477472     4.1268224     -153.43359    
        33   5455.4705      1.5349608      1.194253       4.1395636     -240.14853    
Loop time of 0.00269549 on 1 procs for 1 steps with 3 atoms

run 1 pre yes post no
PPPM initialization ...
  using 12-bit tables for long-range coulomb (src/kspace.cpp:342)
  G vector (1/distance) = 0.28934131
  grid = 18 18 18
  stencil order = 5
  estimated absolute RMS force accuracy = 7.7110449e-05
  estimated relative force accuracy = 5.3550243e-06
  using double precision KISS FFT
  3d grid and FFT values/proc = 15625 5832
Generated 0 of 21 mixed pair_coeff terms from geometric mixing rule
Per MPI rank memory allocation (min/avg/max) = 9.773 | 9.773 | 9.773 Mbytes
   Step          Temp          E_pair         E_mol          TotEng         Press     
        33   5455.4705      1.5349608      1.194253       4.1395636     -240.14853    
        34   4538.1069      1.4522616      1.5445999      4.1700542     -324.15427    
Loop time of 0.00269785 on 1 procs for 1 steps with 3 atoms

run 1 pre yes post no
PPPM initialization ...
  using 12-bit tables for long-range coulomb (src/kspace.cpp:342)
  G vector (1/distance) = 0.28934131
  grid = 18 18 18
  stencil order = 5
  estimated absolute RMS force accuracy = 7.7110449e-05
  estimated relative force accuracy = 5.3550243e-06
  using double precision KISS FFT
  3d grid and FFT values/proc = 15625 5832
Generated 0 of 21 mixed pair_coeff terms from geometric mixing rule
Per MPI rank memory allocation (min/avg/max) = 9.773 | 9.773 | 9.773 Mbytes
   Step          Temp          E_pair         E_mol          TotEng         Press     
        34   4538.1069      1.4522616      1.5445999      4.1700542     -324.15427    
        35   3681.6465      1.3761934      1.9011313      4.229105      -402.50588    
Loop time of 0.0026636 on 1 procs for 1 steps with 3 atoms

run 1 pre yes post no
PPPM initialization ...
  using 12-bit tables for long-range coulomb (src/kspace.cpp:342)
  G vector (1/distance) = 0.28934131
  grid = 18 18 18
  stencil order = 5
  estimated absolute RMS force accuracy = 7.7110449e-05
  estimated relative force accuracy = 5.3550243e-06
  using double precision KISS FFT
  3d grid and FFT values/proc = 15625 5832
Generated 0 of 21 mixed pair_coeff terms from geometric mixing rule
Per MPI rank memory allocation (min/avg/max) = 9.773 | 9.773 | 9.773 Mbytes
   Step          Temp          E_pair         E_mol          TotEng         Press     
        35   3681.6465      1.3761934      1.9011313      4.229105      -402.50588    
        36   2962.1742      1.306192       2.2529061      4.3248802     -473.24764    
Loop time of 0.00280011 on 1 procs for 1 steps with 3 atoms

run 1 pre yes post no
PPPM initialization ...
  using 12-bit tables for long-range coulomb (src/kspace.cpp:342)
  G vector (1/distance) = 0.28934131
  grid = 18 18 18
  stencil order = 5
  estimated absolute RMS force accuracy = 7.7110449e-05
  estimated relative force accuracy = 5.3550243e-06
  using double precision KISS FFT
  3d grid and FFT values/proc = 15625 5832
Generated 0 of 21 mixed pair_coeff terms from geometric mixing rule
Per MPI rank memory allocation (min/avg/max) = 9.773 | 9.773 | 9.773 Mbytes
   Step          Temp          E_pair         E_mol          TotEng         Press     
        36   2962.1742      1.306192       2.2529061      4.3248802     -473.24764    
        37   2422.4979      1.2407937      2.5940179      4.4610764     -535.61983    
Loop time of 0.00274495 on 1 procs for 1 steps with 3 atoms

run 1 pre yes post no
PPPM initialization ...
  using 12-bit tables for long-range coulomb (src/kspace.cpp:342)
  G vector (1/distance) = 0.28934131
  grid = 18 18 18
  stencil order = 5
  estimated absolute RMS force accuracy = 7.7110449e-05
  estimated relative force accuracy = 5.3550243e-06
  using double precision KISS FFT
  3d grid and FFT values/proc = 15625 5832
Generated 0 of 21 mixed pair_coeff terms from geometric mixing rule
Per MPI rank memory allocation (min/avg/max) = 9.773 | 9.773 | 9.773 Mbytes
   Step          Temp          E_pair         E_mol          TotEng         Press     
        37   2422.4979      1.2407937      2.5940179      4.4610764     -535.61983    
        38   2077.8009      1.1780421      2.9234027      4.6385985     -589.78322    
Loop time of 0.00315255 on 1 procs for 1 steps with 3 atoms

run 1 pre yes post no
PPPM initialization ...
  using 12-bit tables for long-range coulomb (src/kspace.cpp:342)
  G vector (1/distance) = 0.28934131
  grid = 18 18 18
  stencil order = 5
  estimated absolute RMS force accuracy = 7.7110449e-05
  estimated relative force accuracy = 5.3550243e-06
  using double precision KISS FFT
  3d grid and FFT values/proc = 15625 5832
Generated 0 of 21 mixed pair_coeff terms from geometric mixing rule
Per MPI rank memory allocation (min/avg/max) = 9.773 | 9.773 | 9.773 Mbytes
   Step          Temp          E_pair         E_mol          TotEng         Press     
        38   2077.8009      1.1780421      2.9234027      4.6385985     -589.78322    
        39   1929.4119      1.1159862      3.2439         4.8586784     -636.36094    
Loop time of 0.00261224 on 1 procs for 1 steps with 3 atoms

run 1 pre yes post no
PPPM initialization ...
  using 12-bit tables for long-range coulomb (src/kspace.cpp:342)
  G vector (1/distance) = 0.28934131
  grid = 18 18 18
  stencil order = 5
  estimated absolute RMS force accuracy = 7.7110449e-05
  estimated relative force accuracy = 5.3550243e-06
  using double precision KISS FFT
  3d grid and FFT values/proc = 15625 5832
Generated 0 of 21 mixed pair_coeff terms from geometric mixing rule
Per MPI rank memory allocation (min/avg/max) = 9.773 | 9.773 | 9.773 Mbytes
   Step          Temp          E_pair         E_mol          TotEng         Press     
        39   1929.4119      1.1159862      3.2439         4.8586784     -636.36094    
        40   1975.7028      1.0530634      3.5614835      5.1253062     -676.08182    
Loop time of 0.00269118 on 1 procs for 1 steps with 3 atoms

run 0 pre yes post no
PPPM initialization ...
  using 12-bit tables for long-range coulomb (src/kspace.cpp:342)
  G vector (1/distance) = 0.28934131
  grid = 18 18 18
  stencil order = 5
  estimated absolute RMS force accuracy = 7.7110449e-05
  estimated relative force accuracy = 5.3550243e-06
  using double precision KISS FFT
  3d grid and FFT values/proc = 15625 5832
Generated 0 of 21 mixed pair_coeff terms from geometric mixing rule
Per MPI rank memory allocation (min/avg/max) = 9.773 | 9.773 | 9.773 Mbytes
   Step          Temp          E_pair         E_mol          TotEng         Press     
        40   1975.7028      1.0530634      3.5614835      5.1253062     -676.08182    
Loop time of 7.11e-07 on 1 procs for 0 steps with 3 atoms

run 0 pre yes post no
PPPM initialization ...
  using 12-bit tables for long-range coulomb (src/kspace.cpp:342)
  G vector (1/distance) = 0.28934131
  grid = 18 18 18
  stencil order = 5
  estimated absolute RMS force accuracy = 7.7110449e-05
  estimated relative force accuracy = 5.3550243e-06
  using double precision KISS FFT
  3d grid and FFT values/proc = 15625 5832
Generated 0 of 21 mixed pair_coeff terms from geometric mixing rule
Per MPI rank memory allocation (min/avg/max) = 9.773 | 9.773 | 9.773 Mbytes
   Step          Temp          E_pair         E_mol          TotEng         Press     
        40   1975.7028      1.0530634      3.5614835      5.1253062     -676.08182    
Loop time of 4.11e-07 on 1 procs for 0 steps with 3 atoms

clear
OMP_NUM_THREADS environment is not set. Defaulting to 1 thread. (src/comm.cpp:98)
  using 1 OpenMP thread(s) per MPI task
units metal
atom_style full
boundary p p p
read_data /tmp/mustard.1db41283f1a74d1b97c38b9120794fbd
Reading data file ...
  triclinic box = (0 0 0) to (25.319 25.319 25.319) with tilt (0 0 0)
  1 by 1 by 1 MPI processor grid
  reading atoms ...
  3 atoms
  reading velocities ...
  3 velocities
  scanning bonds ...
  1 = max bonds/atom
  reading bonds ...
  1 bonds
Finding 1-2 1-3 1-4 neighbors ...
  special bond factors lj:    0        0        0       
  special bond factors coul:  0        0        0       
     1 = max # of 1-2 neighbors
     0 = max # of 1-3 neighbors
     0 = max # of 1-4 neighbors
     1 = max # of special neighbors
  special bonds CPU = 0.000 seconds
  read_data CPU = 0.001 seconds

change_box all triclinic
Changing box ...
  triclinic box = (0 0 0) to (25.319 25.319 25.319) with tilt (0 0 0)
include ff.lmp
##############################################################################################
#### Atoms' types - mass - charge
##############################################################################################
#@ 7   atom types

variable Ba  equal 1
variable Zr  equal 2
variable  Y  equal 3
variable O1  equal 4
variable O2  equal 5
variable O3  equal 6
variable H1  equal 7

##############################################################################################
#### Atoms' masses
##############################################################################################

mass  ${Ba}   137.327
mass  1   137.327
mass  ${Zr}    91.224
mass  2    91.224
mass  ${Y}     88.910
mass  3     88.910
mass  ${O1}    100000
mass  4    100000
# mass  ${O1}    15.996
mass  ${O2}    100000
mass  5    100000
# mass  ${O2}    15.996
mass  ${O3}    15.996
mass  6    15.996
mass  ${H1}     1.008
mass  7     1.008

##############################################################################################
#### Atoms' charges
##############################################################################################

set type ${Ba}  charge     2.000000
set type 1  charge     2.000000
Setting atom values ...
  0 settings made for charge
set type ${Zr}  charge     4.000000
set type 2  charge     4.000000
Setting atom values ...
  0 settings made for charge
set type ${Y}   charge     3.000000
set type 3   charge     3.000000
Setting atom values ...
  0 settings made for charge
set type ${O1}  charge    -1.308698
set type 4  charge    -1.308698
Setting atom values ...
  1 settings made for charge
set type ${O2}  charge    -2.000000
set type 5  charge    -2.000000
Setting atom values ...
  1 settings made for charge
set type ${O3}  charge    -2.000000
set type 6  charge    -2.000000
Setting atom values ...
  0 settings made for charge
set type ${H1}  charge     0.308698
set type 7  charge     0.308698
Setting atom values ...
  1 settings made for charge

##############################################################################################
#### Covalent bonds parameters
##############################################################################################
#@  1   bond types

bond_style harmonic
#@ O1 - H1
# bond_coeff   1      11.504000      0.985357
bond_coeff   1      23.008000      0.985357

##############################################################################################
# Pair potentials
##############################################################################################

variable rmin  equal  8.
variable rmax  equal 10.

pair_style hybrid/overlay buck/mdf ${rmin} ${rmax} lennard/mdf ${rmin} ${rmax} coul/long ${rmax}
pair_style hybrid/overlay buck/mdf 8 ${rmax} lennard/mdf ${rmin} ${rmax} coul/long ${rmax}
pair_style hybrid/overlay buck/mdf 8 10 lennard/mdf ${rmin} ${rmax} coul/long ${rmax}
pair_style hybrid/overlay buck/mdf 8 10 lennard/mdf 8 ${rmax} coul/long ${rmax}
pair_style hybrid/overlay buck/mdf 8 10 lennard/mdf 8 10 coul/long ${rmax}
pair_style hybrid/overlay buck/mdf 8 10 lennard/mdf 8 10 coul/long 10

##############################################################################################
# Buckingham interaction potentials
pair_coeff  ${Ba}  ${O1}  buck/mdf   688.21662   0.392014   0.000
pair_coeff  1  ${O1}  buck/mdf   688.21662   0.392014   0.000
pair_coeff  1  4  buck/mdf   688.21662   0.392014   0.000
pair_coeff  ${Ba}  ${O2}  buck/mdf   972.19945   0.392014   0.000
pair_coeff  1  ${O2}  buck/mdf   972.19945   0.392014   0.000
pair_coeff  1  5  buck/mdf   972.19945   0.392014   0.000
pair_coeff  ${Ba}  ${O3}  buck/mdf   972.19945   0.392014   0.000
pair_coeff  1  ${O3}  buck/mdf   972.19945   0.392014   0.000
pair_coeff  1  6  buck/mdf   972.19945   0.392014   0.000

pair_coeff  ${Y}   ${O1}  buck/mdf   2972.3808   0.267317   0.000
pair_coeff  3   ${O1}  buck/mdf   2972.3808   0.267317   0.000
pair_coeff  3   4  buck/mdf   2972.3808   0.267317   0.000
pair_coeff  ${Y}   ${O2}  buck/mdf   4121.8373   0.280386   0.000
pair_coeff  3   ${O2}  buck/mdf   4121.8373   0.280386   0.000
pair_coeff  3   5  buck/mdf   4121.8373   0.280386   0.000
pair_coeff  ${Y}   ${O3}  buck/mdf   4121.8373   0.280386   0.000
pair_coeff  3   ${O3}  buck/mdf   4121.8373   0.280386   0.000
pair_coeff  3   6  buck/mdf   4121.8373   0.280386   0.000

pair_coeff  ${Zr}  ${O1}  buck/mdf   2195.8712   0.298760   0.000
pair_coeff  2  ${O1}  buck/mdf   2195.8712   0.298760   0.000
pair_coeff  2  4  buck/mdf   2195.8712   0.298760   0.000
pair_coeff  ${Zr}  ${O2}  buck/mdf   3250.8545   0.298760   0.000
pair_coeff  2  ${O2}  buck/mdf   3250.8545   0.298760   0.000
pair_coeff  2  5  buck/mdf   3250.8545   0.298760   0.000
pair_coeff  ${Zr}  ${O3}  buck/mdf   3250.8545   0.298760   0.000
pair_coeff  2  ${O3}  buck/mdf   3250.8545   0.298760   0.000
pair_coeff  2  6  buck/mdf   3250.8545   0.298760   0.000

pair_coeff  ${O1}  ${O1}  buck/mdf   22764.000   0.149000   0.000
pair_coeff  4  ${O1}  buck/mdf   22764.000   0.149000   0.000
pair_coeff  4  4  buck/mdf   22764.000   0.149000   0.000
pair_coeff  ${O1}  ${O2}  buck/mdf   22764.000   0.149000   0.000
pair_coeff  4  ${O2}  buck/mdf   22764.000   0.149000   0.000
pair_coeff  4  5  buck/mdf   22764.000   0.149000   0.000
pair_coeff  ${O1}  ${O3}  buck/mdf   22764.000   0.149000   0.000
pair_coeff  4  ${O3}  buck/mdf   22764.000   0.149000   0.000
pair_coeff  4  6  buck/mdf   22764.000   0.149000   0.000

pair_coeff  ${O2}  ${O2}  buck/mdf   22764.000   0.149000   0.000
pair_coeff  5  ${O2}  buck/mdf   22764.000   0.149000   0.000
pair_coeff  5  5  buck/mdf   22764.000   0.149000   0.000
pair_coeff  ${O2}  ${O3}  buck/mdf   22764.000   0.149000   0.000
pair_coeff  5  ${O3}  buck/mdf   22764.000   0.149000   0.000
pair_coeff  5  6  buck/mdf   22764.000   0.149000   0.000

pair_coeff  ${O3}  ${O3}  buck/mdf   22764.000   0.149000   0.000
pair_coeff  6  ${O3}  buck/mdf   22764.000   0.149000   0.000
pair_coeff  6  6  buck/mdf   22764.000   0.149000   0.000

##############################################################################################
# 12-6 Lennard-Jones potentials
pair_coeff  ${O1}  ${H1}  lennard/mdf    6.391   0.000
pair_coeff  4  ${H1}  lennard/mdf    6.391   0.000
pair_coeff  4  7  lennard/mdf    6.391   0.000
pair_coeff  ${O2}  ${H1}  lennard/mdf    6.391   0.000
pair_coeff  5  ${H1}  lennard/mdf    6.391   0.000
pair_coeff  5  7  lennard/mdf    6.391   0.000
pair_coeff  ${O3}  ${H1}  lennard/mdf    7.800   0.000
pair_coeff  6  ${H1}  lennard/mdf    7.800   0.000
pair_coeff  6  7  lennard/mdf    7.800   0.000

##############################################################################################
# Coulombic interaction
pair_coeff      *      *  coul/long

#########################################################################################################
# Parameters for reciprocal space electrostatics
#########################################################################################################

kspace_style pppm 1.0e-5
kspace_modify fftbench no
fix md all nve
timestep 0.0002

change_box all x final 0.0 25.319 y final 0.0 25.319 z final 0.0 25.319 xy final 0.0 xz final 0.0 yz final 0.0
Changing box ...
  triclinic box = (0 0 0) to (25.319 25.319 25.319) with tilt (0 0 0)
  triclinic box = (0 0 0) to (25.319 25.319 25.319) with tilt (0 0 0)
  triclinic box = (0 0 0) to (25.319 25.319 25.319) with tilt (0 0 0)
  triclinic box = (0 0 0) to (25.319 25.319 25.319) with tilt (0 0 0)
  triclinic box = (0 0 0) to (25.319 25.319 25.319) with tilt (0 0 0)
  triclinic box = (0 0 0) to (25.319 25.319 25.319) with tilt (0 0 0)
fix ux all store/state 1 xu yu zu
fix ext all external pf/callback 1 1
fix_modify ext energy no
fix_modify ext virial no
compute get_pe all pe

run 0 pre yes post no
PPPM initialization ...
WARNING: System is not charge neutral, net charge = -3 (src/kspace.cpp:327)
  using 12-bit tables for long-range coulomb (src/kspace.cpp:342)
  G vector (1/distance) = 0.28934131
  grid = 18 18 18
  stencil order = 5
  estimated absolute RMS force accuracy = 7.7110449e-05
  estimated relative force accuracy = 5.3550243e-06
  using double precision KISS FFT
  3d grid and FFT values/proc = 15625 5832
Generated 0 of 21 mixed pair_coeff terms from geometric mixing rule
Neighbor list info ...
  update: every = 1 steps, delay = 0 steps, check = yes
  max neighbors/atom: 2000, page size: 100000
  master list distance cutoff = 12
  ghost atom cutoff = 12
  binsize = 6, bins = 5 5 5
  3 neighbor lists, perpetual/occasional/extra = 3 0 0
  (1) pair buck/mdf, perpetual, skip from (3)
      attributes: half, newton on
      pair build: skip
      stencil: none
      bin: none
  (2) pair lennard/mdf, perpetual, skip from (3)
      attributes: half, newton on
      pair build: skip
      stencil: none
      bin: none
  (3) pair coul/long, perpetual
      attributes: half, newton on
      pair build: half/bin/newton/tri
      stencil: half/bin/3d/tri
      bin: standard
Per MPI rank memory allocation (min/avg/max) = 9.773 | 9.773 | 9.773 Mbytes
   Step          Temp          E_pair         E_mol          TotEng         Press     
         0   1913.5778      1.1423554      3.1055541      4.7426082     -617.93698    
Loop time of 7.51e-07 on 1 procs for 0 steps with 3 atoms

run 0 pre yes post no
PPPM initialization ...
  using 12-bit tables for long-range coulomb (src/kspace.cpp:342)
  G vector (1/distance) = 0.28934131
  grid = 18 18 18
  stencil order = 5
  estimated absolute RMS force accuracy = 7.7110449e-05
  estimated relative force accuracy = 5.3550243e-06
  using double precision KISS FFT
  3d grid and FFT values/proc = 15625 5832
Generated 0 of 21 mixed pair_coeff terms from geometric mixing rule
Per MPI rank memory allocation (min/avg/max) = 9.773 | 9.773 | 9.773 Mbytes
   Step          Temp          E_pair         E_mol          TotEng         Press     
         0   1913.5778      1.1423554      3.1055541      4.7426082     -617.93698    
Loop time of 1.012e-06 on 1 procs for 0 steps with 3 atoms

run 1 pre yes post no
PPPM initialization ...
  using 12-bit tables for long-range coulomb (src/kspace.cpp:342)
  G vector (1/distance) = 0.28934131
  grid = 18 18 18
  stencil order = 5
  estimated absolute RMS force accuracy = 7.7110449e-05
  estimated relative force accuracy = 5.3550243e-06
  using double precision KISS FFT
  3d grid and FFT values/proc = 15625 5832
Generated 0 of 21 mixed pair_coeff terms from geometric mixing rule
Per MPI rank memory allocation (min/avg/max) = 9.773 | 9.773 | 9.773 Mbytes
   Step          Temp          E_pair         E_mol          TotEng         Press     
         0   1975.7028      1.1423554      3.1055541      4.7586688     -616.88006    
         1   2216.7437      1.204033       2.7801098      4.557216      -566.6943     
Loop time of 0.00284701 on 1 procs for 1 steps with 3 atoms

run 1 pre yes post no
PPPM initialization ...
  using 12-bit tables for long-range coulomb (src/kspace.cpp:342)
  G vector (1/distance) = 0.28934131
  grid = 18 18 18
  stencil order = 5
  estimated absolute RMS force accuracy = 7.7110449e-05
  estimated relative force accuracy = 5.3550243e-06
  using double precision KISS FFT
  3d grid and FFT values/proc = 15625 5832
Generated 0 of 21 mixed pair_coeff terms from geometric mixing rule
Per MPI rank memory allocation (min/avg/max) = 9.773 | 9.773 | 9.773 Mbytes
   Step          Temp          E_pair         E_mol          TotEng         Press     
         1   2216.7437      1.204033       2.7801098      4.557216      -566.6943     
         2   2653.1881      1.2672313      2.4444122      4.3975465     -508.6797     
Loop time of 0.003206 on 1 procs for 1 steps with 3 atoms

run 1 pre yes post no
PPPM initialization ...
  using 12-bit tables for long-range coulomb (src/kspace.cpp:342)
  G vector (1/distance) = 0.28934131
  grid = 18 18 18
  stencil order = 5
  estimated absolute RMS force accuracy = 7.7110449e-05
  estimated relative force accuracy = 5.3550243e-06
  using double precision KISS FFT
  3d grid and FFT values/proc = 15625 5832
Generated 0 of 21 mixed pair_coeff terms from geometric mixing rule
Per MPI rank memory allocation (min/avg/max) = 9.773 | 9.773 | 9.773 Mbytes
   Step          Temp          E_pair         E_mol          TotEng         Press     
         2   2653.1881      1.2672313      2.4444122      4.3975465     -508.6797     
         3   3279.0251      1.3339623      2.0972635      4.2789204     -442.37407    
Loop time of 0.00396754 on 1 procs for 1 steps with 3 atoms

run 1 pre yes post no
PPPM initialization ...
  using 12-bit tables for long-range coulomb (src/kspace.cpp:342)
  G vector (1/distance) = 0.28934131
  grid = 18 18 18
  stencil order = 5
  estimated absolute RMS force accuracy = 7.7110449e-05
  estimated relative force accuracy = 5.3550243e-06
  using double precision KISS FFT
  3d grid and FFT values/proc = 15625 5832
Generated 0 of 21 mixed pair_coeff terms from geometric mixing rule
Per MPI rank memory allocation (min/avg/max) = 9.773 | 9.773 | 9.773 Mbytes
   Step          Temp          E_pair         E_mol          TotEng         Press     
         3   3279.0251      1.3339623      2.0972635      4.2789204     -442.37407    
         4   4068.5523      1.4060408      1.7417732      4.1996173     -367.9679     
Loop time of 0.00304613 on 1 procs for 1 steps with 3 atoms

run 1 pre yes post no
PPPM initialization ...
  using 12-bit tables for long-range coulomb (src/kspace.cpp:342)
  G vector (1/distance) = 0.28934131
  grid = 18 18 18
  stencil order = 5
  estimated absolute RMS force accuracy = 7.7110449e-05
  estimated relative force accuracy = 5.3550243e-06
  using double precision KISS FFT
  3d grid and FFT values/proc = 15625 5832
Generated 0 of 21 mixed pair_coeff terms from geometric mixing rule
Per MPI rank memory allocation (min/avg/max) = 9.773 | 9.773 | 9.773 Mbytes
   Step          Temp          E_pair         E_mol          TotEng         Press     
         4   4068.5523      1.4060408      1.7417732      4.1996173     -367.9679     
         5   4964.3401      1.4845842      1.386093       4.1540598     -286.72954    
Loop time of 0.00287387 on 1 procs for 1 steps with 3 atoms

run 1 pre yes post no
PPPM initialization ...
  using 12-bit tables for long-range coulomb (src/kspace.cpp:342)
  G vector (1/distance) = 0.28934131
  grid = 18 18 18
  stencil order = 5
  estimated absolute RMS force accuracy = 7.7110449e-05
  estimated relative force accuracy = 5.3550243e-06
  using double precision KISS FFT
  3d grid and FFT values/proc = 15625 5832
Generated 0 of 21 mixed pair_coeff terms from geometric mixing rule
Per MPI rank memory allocation (min/avg/max) = 9.773 | 9.773 | 9.773 Mbytes
   Step          Temp          E_pair         E_mol          TotEng         Press     
         5   4964.3401      1.4845842      1.386093       4.1540598     -286.72954    
         6   5878.8438      1.5697036      1.0430176      4.1325216     -201.09666    
Loop time of 0.00271276 on 1 procs for 1 steps with 3 atoms

run 1 pre yes post no
PPPM initialization ...
  using 12-bit tables for long-range coulomb (src/kspace.cpp:342)
  G vector (1/distance) = 0.28934131
  grid = 18 18 18
  stencil order = 5
  estimated absolute RMS force accuracy = 7.7110449e-05
  estimated relative force accuracy = 5.3550243e-06
  using double precision KISS FFT
  3d grid and FFT values/proc = 15625 5832
Generated 0 of 21 mixed pair_coeff terms from geometric mixing rule
Per MPI rank memory allocation (min/avg/max) = 9.773 | 9.773 | 9.773 Mbytes
   Step          Temp          E_pair         E_mol          TotEng         Press     
         6   5878.8438      1.5697036      1.0430176      4.1325216     -201.09666    
         7   6714.3083      1.6604821      0.72805904     4.1243261     -114.25443    
Loop time of 0.00280669 on 1 procs for 1 steps with 3 atoms

run 1 pre yes post no
PPPM initialization ...
  using 12-bit tables for long-range coulomb (src/kspace.cpp:342)
  G vector (1/distance) = 0.28934131
  grid = 18 18 18
  stencil order = 5
  estimated absolute RMS force accuracy = 7.7110449e-05
  estimated relative force accuracy = 5.3550243e-06
  using double precision KISS FFT
  3d grid and FFT values/proc = 15625 5832
Generated 0 of 21 mixed pair_coeff terms from geometric mixing rule
Per MPI rank memory allocation (min/avg/max) = 9.773 | 9.773 | 9.773 Mbytes
   Step          Temp          E_pair         E_mol          TotEng         Press     
         7   6714.3083      1.6604821      0.72805904     4.1243261     -114.25443    
         8   7387.2111      1.7552799      0.4566935      4.1217174     -29.464113    
Loop time of 0.00308309 on 1 procs for 1 steps with 3 atoms

run 1 pre yes post no
PPPM initialization ...
  using 12-bit tables for long-range coulomb (src/kspace.cpp:342)
  G vector (1/distance) = 0.28934131
  grid = 18 18 18
  stencil order = 5
  estimated absolute RMS force accuracy = 7.7110449e-05
  estimated relative force accuracy = 5.3550243e-06
  using double precision KISS FFT
  3d grid and FFT values/proc = 15625 5832
Generated 0 of 21 mixed pair_coeff terms from geometric mixing rule
Per MPI rank memory allocation (min/avg/max) = 9.773 | 9.773 | 9.773 Mbytes
   Step          Temp          E_pair         E_mol          TotEng         Press     
         8   7387.2111      1.7552799      0.4566935      4.1217174     -29.464113    
         9   7840.2934      1.8521047      0.24194518     4.1209248      50.423498    
Loop time of 0.00279014 on 1 procs for 1 steps with 3 atoms

run 1 pre yes post no
PPPM initialization ...
  using 12-bit tables for long-range coulomb (src/kspace.cpp:342)
  G vector (1/distance) = 0.28934131
  grid = 18 18 18
  stencil order = 5
  estimated absolute RMS force accuracy = 7.7110449e-05
  estimated relative force accuracy = 5.3550243e-06
  using double precision KISS FFT
  3d grid and FFT values/proc = 15625 5832
Generated 0 of 21 mixed pair_coeff terms from geometric mixing rule
Per MPI rank memory allocation (min/avg/max) = 9.773 | 9.773 | 9.773 Mbytes
   Step          Temp          E_pair         E_mol          TotEng         Press     
         9   7840.2934      1.8521047      0.24194518     4.1209248      50.423498    
        10   8041.7774      1.9488942      0.092879282    4.1207361      123.15415    
Loop time of 0.0027329 on 1 procs for 1 steps with 3 atoms

run 1 pre yes post no
PPPM initialization ...
  using 12-bit tables for long-range coulomb (src/kspace.cpp:342)
  G vector (1/distance) = 0.28934131
  grid = 18 18 18
  stencil order = 5
  estimated absolute RMS force accuracy = 7.7110449e-05
  estimated relative force accuracy = 5.3550243e-06
  using double precision KISS FFT
  3d grid and FFT values/proc = 15625 5832
Generated 0 of 21 mixed pair_coeff terms from geometric mixing rule
Per MPI rank memory allocation (min/avg/max) = 9.773 | 9.773 | 9.773 Mbytes
   Step          Temp          E_pair         E_mol          TotEng         Press     
        10   8041.7774      1.9488942      0.092879282    4.1207361      123.15415    
        11   7981.4523      2.0436593      0.013864767    4.1208914      187.11158    
Loop time of 0.00259669 on 1 procs for 1 steps with 3 atoms

run 1 pre yes post no
PPPM initialization ...
  using 12-bit tables for long-range coulomb (src/kspace.cpp:342)
  G vector (1/distance) = 0.28934131
  grid = 18 18 18
  stencil order = 5
  estimated absolute RMS force accuracy = 7.7110449e-05
  estimated relative force accuracy = 5.3550243e-06
  using double precision KISS FFT
  3d grid and FFT values/proc = 15625 5832
Generated 0 of 21 mixed pair_coeff terms from geometric mixing rule
Per MPI rank memory allocation (min/avg/max) = 9.773 | 9.773 | 9.773 Mbytes
   Step          Temp          E_pair         E_mol          TotEng         Press     
        11   7981.4523      2.0436593      0.013864767    4.1208914      187.11158    
        12   7668.4226      2.1345623      0.0043347048   4.1213399      241.33143    
Loop time of 0.00272705 on 1 procs for 1 steps with 3 atoms

run 1 pre yes post no
PPPM initialization ...
  using 12-bit tables for long-range coulomb (src/kspace.cpp:342)
  G vector (1/distance) = 0.28934131
  grid = 18 18 18
  stencil order = 5
  estimated absolute RMS force accuracy = 7.7110449e-05
  estimated relative force accuracy = 5.3550243e-06
  using double precision KISS FFT
  3d grid and FFT values/proc = 15625 5832
Generated 0 of 21 mixed pair_coeff terms from geometric mixing rule
Per MPI rank memory allocation (min/avg/max) = 9.773 | 9.773 | 9.773 Mbytes
   Step          Temp          E_pair         E_mol          TotEng         Press     
        12   7668.4226      2.1345623      0.0043347048   4.1213399      241.33143    
        13   7129.6902      2.2199625      0.058918081    4.1220502      285.49477    
Loop time of 0.00272898 on 1 procs for 1 steps with 3 atoms

run 1 pre yes post no
PPPM initialization ...
  using 12-bit tables for long-range coulomb (src/kspace.cpp:342)
  G vector (1/distance) = 0.28934131
  grid = 18 18 18
  stencil order = 5
  estimated absolute RMS force accuracy = 7.7110449e-05
  estimated relative force accuracy = 5.3550243e-06
  using double precision KISS FFT
  3d grid and FFT values/proc = 15625 5832
Generated 0 of 21 mixed pair_coeff terms from geometric mixing rule
Per MPI rank memory allocation (min/avg/max) = 9.773 | 9.773 | 9.773 Mbytes
   Step          Temp          E_pair         E_mol          TotEng         Press     
        13   7129.6902      2.2199625      0.058918081    4.1220502      285.49477    
        14   6408.1867      2.298426       0.16790237     4.1229747      319.88507    
Loop time of 0.00258685 on 1 procs for 1 steps with 3 atoms

run 1 pre yes post no
PPPM initialization ...
  using 12-bit tables for long-range coulomb (src/kspace.cpp:342)
  G vector (1/distance) = 0.28934131
  grid = 18 18 18
  stencil order = 5
  estimated absolute RMS force accuracy = 7.7110449e-05
  estimated relative force accuracy = 5.3550243e-06
  using double precision KISS FFT
  3d grid and FFT values/proc = 15625 5832
Generated 0 of 21 mixed pair_coeff terms from geometric mixing rule
Per MPI rank memory allocation (min/avg/max) = 9.773 | 9.773 | 9.773 Mbytes
   Step          Temp          E_pair         E_mol          TotEng         Press     
        14   6408.1867      2.298426       0.16790237     4.1229747      319.88507    
        15   5559.8349      2.3687267      0.31799399     4.1240509      345.30608    
Loop time of 0.00265649 on 1 procs for 1 steps with 3 atoms

run 1 pre yes post no
PPPM initialization ...
  using 12-bit tables for long-range coulomb (src/kspace.cpp:342)
  G vector (1/distance) = 0.28934131
  grid = 18 18 18
  stencil order = 5
  estimated absolute RMS force accuracy = 7.7110449e-05
  estimated relative force accuracy = 5.3550243e-06
  using double precision KISS FFT
  3d grid and FFT values/proc = 15625 5832
Generated 0 of 21 mixed pair_coeff terms from geometric mixing rule
Per MPI rank memory allocation (min/avg/max) = 9.773 | 9.773 | 9.773 Mbytes
   Step          Temp          E_pair         E_mol          TotEng         Press     
        15   5559.8349      2.3687267      0.31799399     4.1240509      345.30608    
        16   4649.7061      2.4298308      0.49332881     4.125203       362.96553    
Loop time of 0.00261918 on 1 procs for 1 steps with 3 atoms

run 1 pre yes post no
PPPM initialization ...
  using 12-bit tables for long-range coulomb (src/kspace.cpp:342)
  G vector (1/distance) = 0.28934131
  grid = 18 18 18
  stencil order = 5
  estimated absolute RMS force accuracy = 7.7110449e-05
  estimated relative force accuracy = 5.3550243e-06
  using double precision KISS FFT
  3d grid and FFT values/proc = 15625 5832
Generated 0 of 21 mixed pair_coeff terms from geometric mixing rule
Per MPI rank memory allocation (min/avg/max) = 9.773 | 9.773 | 9.773 Mbytes
   Step          Temp          E_pair         E_mol          TotEng         Press     
        16   4649.7061      2.4298308      0.49332881     4.125203       362.96553    
        17   3747.4907      2.4808813      0.67666855     4.1263523      374.33374    
Loop time of 0.00280513 on 1 procs for 1 steps with 3 atoms

run 1 pre yes post no
PPPM initialization ...
  using 12-bit tables for long-range coulomb (src/kspace.cpp:342)
  G vector (1/distance) = 0.28934131
  grid = 18 18 18
  stencil order = 5
  estimated absolute RMS force accuracy = 7.7110449e-05
  estimated relative force accuracy = 5.3550243e-06
  using double precision KISS FFT
  3d grid and FFT values/proc = 15625 5832
Generated 0 of 21 mixed pair_coeff terms from geometric mixing rule
Per MPI rank memory allocation (min/avg/max) = 9.773 | 9.773 | 9.773 Mbytes
   Step          Temp          E_pair         E_mol          TotEng         Press     
        17   3747.4907      2.4808813      0.67666855     4.1263523      374.33374    
        18   2922.5677      2.5211671      0.85070456     4.1274147      380.987      
Loop time of 0.00277798 on 1 procs for 1 steps with 3 atoms

run 1 pre yes post no
PPPM initialization ...
  using 12-bit tables for long-range coulomb (src/kspace.cpp:342)
  G vector (1/distance) = 0.28934131
  grid = 18 18 18
  stencil order = 5
  estimated absolute RMS force accuracy = 7.7110449e-05
  estimated relative force accuracy = 5.3550243e-06
  using double precision KISS FFT
  3d grid and FFT values/proc = 15625 5832
Generated 0 of 21 mixed pair_coeff terms from geometric mixing rule
Per MPI rank memory allocation (min/avg/max) = 9.773 | 9.773 | 9.773 Mbytes
   Step          Temp          E_pair         E_mol          TotEng         Press     
        18   2922.5677      2.5211671      0.85070456     4.1274147      380.987      
        19   2239.0064      2.5501024      0.99937997     4.128311       384.44811    
Loop time of 0.00111967 on 1 procs for 1 steps with 3 atoms

run 1 pre yes post no
PPPM initialization ...
  using 12-bit tables for long-range coulomb (src/kspace.cpp:342)
  G vector (1/distance) = 0.28934131
  grid = 18 18 18
  stencil order = 5
  estimated absolute RMS force accuracy = 7.7110449e-05
  estimated relative force accuracy = 5.3550243e-06
  using double precision KISS FFT
  3d grid and FFT values/proc = 15625 5832
Generated 0 of 21 mixed pair_coeff terms from geometric mixing rule
Per MPI rank memory allocation (min/avg/max) = 9.773 | 9.773 | 9.773 Mbytes
   Step          Temp          E_pair         E_mol          TotEng         Press     
        19   2239.0064      2.5501024      0.99937997     4.128311       384.44811    
        20   1750.8572      2.567207       1.1091348      4.1289738      386.03591    
Loop time of 0.00110644 on 1 procs for 1 steps with 3 atoms

run 1 pre yes post no
PPPM initialization ...
  using 12-bit tables for long-range coulomb (src/kspace.cpp:342)
  G vector (1/distance) = 0.28934131
  grid = 18 18 18
  stencil order = 5
  estimated absolute RMS force accuracy = 7.7110449e-05
  estimated relative force accuracy = 5.3550243e-06
  using double precision KISS FFT
  3d grid and FFT values/proc = 15625 5832
Generated 0 of 21 mixed pair_coeff terms from geometric mixing rule
Per MPI rank memory allocation (min/avg/max) = 9.773 | 9.773 | 9.773 Mbytes
   Step          Temp          E_pair         E_mol          TotEng         Press     
        20   1750.8572      2.567207       1.1091348      4.1289738      386.03591    
        21   1498.0962      2.5720847      1.1699777      4.1293506      386.73562    
Loop time of 0.00108745 on 1 procs for 1 steps with 3 atoms

run 1 pre yes post no
PPPM initialization ...
  using 12-bit tables for long-range coulomb (src/kspace.cpp:342)
  G vector (1/distance) = 0.28934131
  grid = 18 18 18
  stencil order = 5
  estimated absolute RMS force accuracy = 7.7110449e-05
  estimated relative force accuracy = 5.3550243e-06
  using double precision KISS FFT
  3d grid and FFT values/proc = 15625 5832
Generated 0 of 21 mixed pair_coeff terms from geometric mixing rule
Per MPI rank memory allocation (min/avg/max) = 9.773 | 9.773 | 9.773 Mbytes
   Step          Temp          E_pair         E_mol          TotEng         Press     
        21   1498.0962      2.5720847      1.1699777      4.1293506      386.73562    
        22   1503.5583      2.5644144      1.1762964      4.1294111      387.10152    
Loop time of 0.00107348 on 1 procs for 1 steps with 3 atoms

run 1 pre yes post no
PPPM initialization ...
  using 12-bit tables for long-range coulomb (src/kspace.cpp:342)
  G vector (1/distance) = 0.28934131
  grid = 18 18 18
  stencil order = 5
  estimated absolute RMS force accuracy = 7.7110449e-05
  estimated relative force accuracy = 5.3550243e-06
  using double precision KISS FFT
  3d grid and FFT values/proc = 15625 5832
Generated 0 of 21 mixed pair_coeff terms from geometric mixing rule
Per MPI rank memory allocation (min/avg/max) = 9.773 | 9.773 | 9.773 Mbytes
   Step          Temp          E_pair         E_mol          TotEng         Press     
        22   1503.5583      2.5644144      1.1762964      4.1294111      387.10152    
        23   1771.1315      2.5439398      1.1273342      4.1291474      387.20001    
Loop time of 0.00108108 on 1 procs for 1 steps with 3 atoms

run 1 pre yes post no
PPPM initialization ...
  using 12-bit tables for long-range coulomb (src/kspace.cpp:342)
  G vector (1/distance) = 0.28934131
  grid = 18 18 18
  stencil order = 5
  estimated absolute RMS force accuracy = 7.7110449e-05
  estimated relative force accuracy = 5.3550243e-06
  using double precision KISS FFT
  3d grid and FFT values/proc = 15625 5832
Generated 0 of 21 mixed pair_coeff terms from geometric mixing rule
Per MPI rank memory allocation (min/avg/max) = 9.773 | 9.773 | 9.773 Mbytes
   Step          Temp          E_pair         E_mol          TotEng         Press     
        23   1771.1315      2.5439398      1.1273342      4.1291474      387.20001    
        24   2285.382       2.5104735      1.0272878      4.1285789      386.5993     
Loop time of 0.00104144 on 1 procs for 1 steps with 3 atoms

run 1 pre yes post no
PPPM initialization ...
  using 12-bit tables for long-range coulomb (src/kspace.cpp:342)
  G vector (1/distance) = 0.28934131
  grid = 18 18 18
  stencil order = 5
  estimated absolute RMS force accuracy = 7.7110449e-05
  estimated relative force accuracy = 5.3550243e-06
  using double precision KISS FFT
  3d grid and FFT values/proc = 15625 5832
Generated 0 of 21 mixed pair_coeff terms from geometric mixing rule
Per MPI rank memory allocation (min/avg/max) = 9.773 | 9.773 | 9.773 Mbytes
   Step          Temp          E_pair         E_mol          TotEng         Press     
        24   2285.382       2.5104735      1.0272878      4.1285789      386.5993     
        25   3012.6498      2.463901       0.88501503     4.1277472      384.40635    
Loop time of 0.00277513 on 1 procs for 1 steps with 3 atoms

run 1 pre yes post no
PPPM initialization ...
  using 12-bit tables for long-range coulomb (src/kspace.cpp:342)
  G vector (1/distance) = 0.28934131
  grid = 18 18 18
  stencil order = 5
  estimated absolute RMS force accuracy = 7.7110449e-05
  estimated relative force accuracy = 5.3550243e-06
  using double precision KISS FFT
  3d grid and FFT values/proc = 15625 5832
Generated 0 of 21 mixed pair_coeff terms from geometric mixing rule
Per MPI rank memory allocation (min/avg/max) = 9.773 | 9.773 | 9.773 Mbytes
   Step          Temp          E_pair         E_mol          TotEng         Press     
        25   3012.6498      2.463901       0.88501503     4.1277472      384.40635    
        26   3903.5189      2.4041984      0.71337533     4.1267126      379.34894    
Loop time of 0.00360338 on 1 procs for 1 steps with 3 atoms

run 1 pre yes post no
PPPM initialization ...
  using 12-bit tables for long-range coulomb (src/kspace.cpp:342)
  G vector (1/distance) = 0.28934131
  grid = 18 18 18
  stencil order = 5
  estimated absolute RMS force accuracy = 7.7110449e-05
  estimated relative force accuracy = 5.3550243e-06
  using double precision KISS FFT
  3d grid and FFT values/proc = 15625 5832
Generated 0 of 21 mixed pair_coeff terms from geometric mixing rule
Per MPI rank memory allocation (min/avg/max) = 9.773 | 9.773 | 9.773 Mbytes
   Step          Temp          E_pair         E_mol          TotEng         Press     
        26   3903.5189      2.4041984      0.71337533     4.1267126      379.34894    
        27   4896.4356      2.3314601      0.52826209     4.1255501      369.89598    
Loop time of 0.0026958 on 1 procs for 1 steps with 3 atoms

run 1 pre yes post no
PPPM initialization ...
  using 12-bit tables for long-range coulomb (src/kspace.cpp:342)
  G vector (1/distance) = 0.28934131
  grid = 18 18 18
  stencil order = 5
  estimated absolute RMS force accuracy = 7.7110449e-05
  estimated relative force accuracy = 5.3550243e-06
  using double precision KISS FFT
  3d grid and FFT values/proc = 15625 5832
Generated 0 of 21 mixed pair_coeff terms from geometric mixing rule
Per MPI rank memory allocation (min/avg/max) = 9.773 | 9.773 | 9.773 Mbytes
   Step          Temp          E_pair         E_mol          TotEng         Press     
        27   4896.4356      2.3314601      0.52826209     4.1255501      369.89598    
        28   5922.1574      2.245938       0.34740611     4.124342       354.40646    
Loop time of 0.00277928 on 1 procs for 1 steps with 3 atoms

run 1 pre yes post no
PPPM initialization ...
  using 12-bit tables for long-range coulomb (src/kspace.cpp:342)
  G vector (1/distance) = 0.28934131
  grid = 18 18 18
  stencil order = 5
  estimated absolute RMS force accuracy = 7.7110449e-05
  estimated relative force accuracy = 5.3550243e-06
  using double precision KISS FFT
  3d grid and FFT values/proc = 15625 5832
Generated 0 of 21 mixed pair_coeff terms from geometric mixing rule
Per MPI rank memory allocation (min/avg/max) = 9.773 | 9.773 | 9.773 Mbytes
   Step          Temp          E_pair         E_mol          TotEng         Press     
        28   5922.1574      2.245938       0.34740611     4.124342       354.40646    
        29   6908.6545      2.1480952      0.1890467      4.1231693      331.29592    
Loop time of 0.00436224 on 1 procs for 1 steps with 3 atoms

run 1 pre yes post no
PPPM initialization ...
  using 12-bit tables for long-range coulomb (src/kspace.cpp:342)
  G vector (1/distance) = 0.28934131
  grid = 18 18 18
  stencil order = 5
  estimated absolute RMS force accuracy = 7.7110449e-05
  estimated relative force accuracy = 5.3550243e-06
  using double precision KISS FFT
  3d grid and FFT values/proc = 15625 5832
Generated 0 of 21 mixed pair_coeff terms from geometric mixing rule
Per MPI rank memory allocation (min/avg/max) = 9.773 | 9.773 | 9.773 Mbytes
   Step          Temp          E_pair         E_mol          TotEng         Press     
        29   6908.6545      2.1480952      0.1890467      4.1231693      331.29592    
        30   7786.0722      2.0386815      0.070569784    4.122109       299.20892    
Loop time of 0.0037342 on 1 procs for 1 steps with 3 atoms

run 1 pre yes post no
PPPM initialization ...
  using 12-bit tables for long-range coulomb (src/kspace.cpp:342)
  G vector (1/distance) = 0.28934131
  grid = 18 18 18
  stencil order = 5
  estimated absolute RMS force accuracy = 7.7110449e-05
  estimated relative force accuracy = 5.3550243e-06
  using double precision KISS FFT
  3d grid and FFT values/proc = 15625 5832
Generated 0 of 21 mixed pair_coeff terms from geometric mixing rule
Per MPI rank memory allocation (min/avg/max) = 9.773 | 9.773 | 9.773 Mbytes
   Step          Temp          E_pair         E_mol          TotEng         Press     
        30   7786.0722      2.0386815      0.070569784    4.122109       299.20892    
        31   8491.3831      1.9188237      0.0072079672   4.1212265      257.18574    
Loop time of 0.0039757 on 1 procs for 1 steps with 3 atoms

run 1 pre yes post no
PPPM initialization ...
  using 12-bit tables for long-range coulomb (src/kspace.cpp:342)
  G vector (1/distance) = 0.28934131
  grid = 18 18 18
  stencil order = 5
  estimated absolute RMS force accuracy = 7.7110449e-05
  estimated relative force accuracy = 5.3550243e-06
  using double precision KISS FFT
  3d grid and FFT values/proc = 15625 5832
Generated 0 of 21 mixed pair_coeff terms from geometric mixing rule
Per MPI rank memory allocation (min/avg/max) = 9.773 | 9.773 | 9.773 Mbytes
   Step          Temp          E_pair         E_mol          TotEng         Press     
        31   8491.3831      1.9188237      0.0072079672   4.1212265      257.18574    
        32   8972.4244      1.7901355      0.010886585    4.1205758      204.81337    
Loop time of 0.00354462 on 1 procs for 1 steps with 3 atoms

run 1 pre yes post no
PPPM initialization ...
  using 12-bit tables for long-range coulomb (src/kspace.cpp:342)
  G vector (1/distance) = 0.28934131
  grid = 18 18 18
  stencil order = 5
  estimated absolute RMS force accuracy = 7.7110449e-05
  estimated relative force accuracy = 5.3550243e-06
  using double precision KISS FFT
  3d grid and FFT values/proc = 15625 5832
Generated 0 of 21 mixed pair_coeff terms from geometric mixing rule
Per MPI rank memory allocation (min/avg/max) = 9.773 | 9.773 | 9.773 Mbytes
   Step          Temp          E_pair         E_mol          TotEng         Press     
        32   8972.4244      1.7901355      0.010886585    4.1205758      204.81337    
        33   9191.3252      1.6548422      0.089283691    4.1202699      142.35492    
Loop time of 0.00270604 on 1 procs for 1 steps with 3 atoms

run 1 pre yes post no
PPPM initialization ...
  using 12-bit tables for long-range coulomb (src/kspace.cpp:342)
  G vector (1/distance) = 0.28934131
  grid = 18 18 18
  stencil order = 5
  estimated absolute RMS force accuracy = 7.7110449e-05
  estimated relative force accuracy = 5.3550243e-06
  using double precision KISS FFT
  3d grid and FFT values/proc = 15625 5832
Generated 0 of 21 mixed pair_coeff terms from geometric mixing rule
Per MPI rank memory allocation (min/avg/max) = 9.773 | 9.773 | 9.773 Mbytes
   Step          Temp          E_pair         E_mol          TotEng         Press     
        33   9191.3252      1.6548422      0.089283691    4.1202699      142.35492    
        34   9129.2472      1.5158948      0.24515882     4.1211493      70.879465    
Loop time of 0.00263689 on 1 procs for 1 steps with 3 atoms

run 1 pre yes post no
PPPM initialization ...
  using 12-bit tables for long-range coulomb (src/kspace.cpp:342)
  G vector (1/distance) = 0.28934131
  grid = 18 18 18
  stencil order = 5
  estimated absolute RMS force accuracy = 7.7110449e-05
  estimated relative force accuracy = 5.3550243e-06
  using double precision KISS FFT
  3d grid and FFT values/proc = 15625 5832
Generated 0 of 21 mixed pair_coeff terms from geometric mixing rule
Per MPI rank memory allocation (min/avg/max) = 9.773 | 9.773 | 9.773 Mbytes
   Step          Temp          E_pair         E_mol          TotEng         Press     
        34   9129.2472      1.5158948      0.24515882     4.1211493      70.879465    
        35   8801.1857      1.3769999      0.47606201     4.128347      -7.4912338    
Loop time of 0.00271716 on 1 procs for 1 steps with 3 atoms

run 1 pre yes post no
PPPM initialization ...
  using 12-bit tables for long-range coulomb (src/kspace.cpp:342)
  G vector (1/distance) = 0.28934131
  grid = 18 18 18
  stencil order = 5
  estimated absolute RMS force accuracy = 7.7110449e-05
  estimated relative force accuracy = 5.3550243e-06
  using double precision KISS FFT
  3d grid and FFT values/proc = 15625 5832
Generated 0 of 21 mixed pair_coeff terms from geometric mixing rule
Per MPI rank memory allocation (min/avg/max) = 9.773 | 9.773 | 9.773 Mbytes
   Step          Temp          E_pair         E_mol          TotEng         Press     
        35   8801.1857      1.3769999      0.47606201     4.128347      -7.4912338    
        36   8292.3796      1.2423542      0.77497469     4.1610773     -89.131507    
Loop time of 0.00318943 on 1 procs for 1 steps with 3 atoms

run 1 pre yes post no
PPPM initialization ...
  using 12-bit tables for long-range coulomb (src/kspace.cpp:342)
  G vector (1/distance) = 0.28934131
  grid = 18 18 18
  stencil order = 5
  estimated absolute RMS force accuracy = 7.7110449e-05
  estimated relative force accuracy = 5.3550243e-06
  using double precision KISS FFT
  3d grid and FFT values/proc = 15625 5832
Generated 0 of 21 mixed pair_coeff terms from geometric mixing rule
Per MPI rank memory allocation (min/avg/max) = 9.773 | 9.773 | 9.773 Mbytes
   Step          Temp          E_pair         E_mol          TotEng         Press     
        36   8292.3796      1.2423542      0.77497469     4.1610773     -89.131507    
        37   7784.0335      1.1157378      1.133472       4.2615403     -168.97803    
Loop time of 0.00323143 on 1 procs for 1 steps with 3 atoms

run 1 pre yes post no
PPPM initialization ...
  using 12-bit tables for long-range coulomb (src/kspace.cpp:342)
  G vector (1/distance) = 0.28934131
  grid = 18 18 18
  stencil order = 5
  estimated absolute RMS force accuracy = 7.7110449e-05
  estimated relative force accuracy = 5.3550243e-06
  using double precision KISS FFT
  3d grid and FFT values/proc = 15625 5832
Generated 0 of 21 mixed pair_coeff terms from geometric mixing rule
Per MPI rank memory allocation (min/avg/max) = 9.773 | 9.773 | 9.773 Mbytes
   Step          Temp          E_pair         E_mol          TotEng         Press     
        37   7784.0335      1.1157378      1.133472       4.2615403     -168.97803    
        38   7458.4061      0.9995903      1.5480923      4.4758319     -242.72508    
Loop time of 0.00281279 on 1 procs for 1 steps with 3 atoms

run 1 pre yes post no
PPPM initialization ...
  using 12-bit tables for long-range coulomb (src/kspace.cpp:342)
  G vector (1/distance) = 0.28934131
  grid = 18 18 18
  stencil order = 5
  estimated absolute RMS force accuracy = 7.7110449e-05
  estimated relative force accuracy = 5.3550243e-06
  using double precision KISS FFT
  3d grid and FFT values/proc = 15625 5832
Generated 0 of 21 mixed pair_coeff terms from geometric mixing rule
Per MPI rank memory allocation (min/avg/max) = 9.773 | 9.773 | 9.773 Mbytes
   Step          Temp          E_pair         E_mol          TotEng         Press     
        38   7458.4061      0.9995903      1.5480923      4.4758319     -242.72508    
        39   7309.9469      0.89654203     2.0228996      4.8092113     -309.40518    
Loop time of 0.00316717 on 1 procs for 1 steps with 3 atoms

run 1 pre yes post no
PPPM initialization ...
  using 12-bit tables for long-range coulomb (src/kspace.cpp:342)
  G vector (1/distance) = 0.28934131
  grid = 18 18 18
  stencil order = 5
  estimated absolute RMS force accuracy = 7.7110449e-05
  estimated relative force accuracy = 5.3550243e-06
  using double precision KISS FFT
  3d grid and FFT values/proc = 15625 5832
Generated 0 of 21 mixed pair_coeff terms from geometric mixing rule
Per MPI rank memory allocation (min/avg/max) = 9.773 | 9.773 | 9.773 Mbytes
   Step          Temp          E_pair         E_mol          TotEng         Press     
        39   7309.9469      0.89654203     2.0228996      4.8092113     -309.40518    
        40   7226.5121      0.81342271     2.5605363      5.242159      -368.03123    
Loop time of 0.00264042 on 1 procs for 1 steps with 3 atoms

run 0 pre yes post no
PPPM initialization ...
  using 12-bit tables for long-range coulomb (src/kspace.cpp:342)
  G vector (1/distance) = 0.28934131
  grid = 18 18 18
  stencil order = 5
  estimated absolute RMS force accuracy = 7.7110449e-05
  estimated relative force accuracy = 5.3550243e-06
  using double precision KISS FFT
  3d grid and FFT values/proc = 15625 5832
Generated 0 of 21 mixed pair_coeff terms from geometric mixing rule
Per MPI rank memory allocation (min/avg/max) = 9.773 | 9.773 | 9.773 Mbytes
   Step          Temp          E_pair         E_mol          TotEng         Press     
        40   7226.5121      0.81342271     2.5605363      5.242159      -368.03123    
Loop time of 7.21e-07 on 1 procs for 0 steps with 3 atoms

run 0 pre yes post no
PPPM initialization ...
  using 12-bit tables for long-range coulomb (src/kspace.cpp:342)
  G vector (1/distance) = 0.28934131
  grid = 18 18 18
  stencil order = 5
  estimated absolute RMS force accuracy = 7.7110449e-05
  estimated relative force accuracy = 5.3550243e-06
  using double precision KISS FFT
  3d grid and FFT values/proc = 15625 5832
Generated 0 of 21 mixed pair_coeff terms from geometric mixing rule
Per MPI rank memory allocation (min/avg/max) = 9.773 | 9.773 | 9.773 Mbytes
   Step          Temp          E_pair         E_mol          TotEng         Press     
        40   7226.5121      0.81342271     2.5605363      5.242159      -368.03123    
Loop time of 4.2e-07 on 1 procs for 0 steps with 3 atoms

clear
OMP_NUM_THREADS environment is not set. Defaulting to 1 thread. (src/comm.cpp:98)
  using 1 OpenMP thread(s) per MPI task
units metal
atom_style full
boundary p p p
read_data /tmp/mustard.1db41283f1a74d1b97c38b9120794fbd
Reading data file ...
  triclinic box = (0 0 0) to (25.319 25.319 25.319) with tilt (0 0 0)
  1 by 1 by 1 MPI processor grid
  reading atoms ...
  3 atoms
  reading velocities ...
  3 velocities
  scanning bonds ...
  1 = max bonds/atom
  reading bonds ...
  1 bonds
Finding 1-2 1-3 1-4 neighbors ...
  special bond factors lj:    0        0        0       
  special bond factors coul:  0        0        0       
     1 = max # of 1-2 neighbors
     0 = max # of 1-3 neighbors
     0 = max # of 1-4 neighbors
     1 = max # of special neighbors
  special bonds CPU = 0.000 seconds
  read_data CPU = 0.001 seconds

change_box all triclinic
Changing box ...
  triclinic box = (0 0 0) to (25.319 25.319 25.319) with tilt (0 0 0)
include ff.lmp
##############################################################################################
#### Atoms' types - mass - charge
##############################################################################################
#@ 7   atom types

variable Ba  equal 1
variable Zr  equal 2
variable  Y  equal 3
variable O1  equal 4
variable O2  equal 5
variable O3  equal 6
variable H1  equal 7

##############################################################################################
#### Atoms' masses
##############################################################################################

mass  ${Ba}   137.327
mass  1   137.327
mass  ${Zr}    91.224
mass  2    91.224
mass  ${Y}     88.910
mass  3     88.910
mass  ${O1}    100000
mass  4    100000
# mass  ${O1}    15.996
mass  ${O2}    100000
mass  5    100000
# mass  ${O2}    15.996
mass  ${O3}    15.996
mass  6    15.996
mass  ${H1}     1.008
mass  7     1.008

##############################################################################################
#### Atoms' charges
##############################################################################################

set type ${Ba}  charge     2.000000
set type 1  charge     2.000000
Setting atom values ...
  0 settings made for charge
set type ${Zr}  charge     4.000000
set type 2  charge     4.000000
Setting atom values ...
  0 settings made for charge
set type ${Y}   charge     3.000000
set type 3   charge     3.000000
Setting atom values ...
  0 settings made for charge
set type ${O1}  charge    -1.308698
set type 4  charge    -1.308698
Setting atom values ...
  1 settings made for charge
set type ${O2}  charge    -2.000000
set type 5  charge    -2.000000
Setting atom values ...
  1 settings made for charge
set type ${O3}  charge    -2.000000
set type 6  charge    -2.000000
Setting atom values ...
  0 settings made for charge
set type ${H1}  charge     0.308698
set type 7  charge     0.308698
Setting atom values ...
  1 settings made for charge

##############################################################################################
#### Covalent bonds parameters
##############################################################################################
#@  1   bond types

bond_style harmonic
#@ O1 - H1
# bond_coeff   1      11.504000      0.985357
bond_coeff   1      23.008000      0.985357

##############################################################################################
# Pair potentials
##############################################################################################

variable rmin  equal  8.
variable rmax  equal 10.

pair_style hybrid/overlay buck/mdf ${rmin} ${rmax} lennard/mdf ${rmin} ${rmax} coul/long ${rmax}
pair_style hybrid/overlay buck/mdf 8 ${rmax} lennard/mdf ${rmin} ${rmax} coul/long ${rmax}
pair_style hybrid/overlay buck/mdf 8 10 lennard/mdf ${rmin} ${rmax} coul/long ${rmax}
pair_style hybrid/overlay buck/mdf 8 10 lennard/mdf 8 ${rmax} coul/long ${rmax}
pair_style hybrid/overlay buck/mdf 8 10 lennard/mdf 8 10 coul/long ${rmax}
pair_style hybrid/overlay buck/mdf 8 10 lennard/mdf 8 10 coul/long 10

##############################################################################################
# Buckingham interaction potentials
pair_coeff  ${Ba}  ${O1}  buck/mdf   688.21662   0.392014   0.000
pair_coeff  1  ${O1}  buck/mdf   688.21662   0.392014   0.000
pair_coeff  1  4  buck/mdf   688.21662   0.392014   0.000
pair_coeff  ${Ba}  ${O2}  buck/mdf   972.19945   0.392014   0.000
pair_coeff  1  ${O2}  buck/mdf   972.19945   0.392014   0.000
pair_coeff  1  5  buck/mdf   972.19945   0.392014   0.000
pair_coeff  ${Ba}  ${O3}  buck/mdf   972.19945   0.392014   0.000
pair_coeff  1  ${O3}  buck/mdf   972.19945   0.392014   0.000
pair_coeff  1  6  buck/mdf   972.19945   0.392014   0.000

pair_coeff  ${Y}   ${O1}  buck/mdf   2972.3808   0.267317   0.000
pair_coeff  3   ${O1}  buck/mdf   2972.3808   0.267317   0.000
pair_coeff  3   4  buck/mdf   2972.3808   0.267317   0.000
pair_coeff  ${Y}   ${O2}  buck/mdf   4121.8373   0.280386   0.000
pair_coeff  3   ${O2}  buck/mdf   4121.8373   0.280386   0.000
pair_coeff  3   5  buck/mdf   4121.8373   0.280386   0.000
pair_coeff  ${Y}   ${O3}  buck/mdf   4121.8373   0.280386   0.000
pair_coeff  3   ${O3}  buck/mdf   4121.8373   0.280386   0.000
pair_coeff  3   6  buck/mdf   4121.8373   0.280386   0.000

pair_coeff  ${Zr}  ${O1}  buck/mdf   2195.8712   0.298760   0.000
pair_coeff  2  ${O1}  buck/mdf   2195.8712   0.298760   0.000
pair_coeff  2  4  buck/mdf   2195.8712   0.298760   0.000
pair_coeff  ${Zr}  ${O2}  buck/mdf   3250.8545   0.298760   0.000
pair_coeff  2  ${O2}  buck/mdf   3250.8545   0.298760   0.000
pair_coeff  2  5  buck/mdf   3250.8545   0.298760   0.000
pair_coeff  ${Zr}  ${O3}  buck/mdf   3250.8545   0.298760   0.000
pair_coeff  2  ${O3}  buck/mdf   3250.8545   0.298760   0.000
pair_coeff  2  6  buck/mdf   3250.8545   0.298760   0.000

pair_coeff  ${O1}  ${O1}  buck/mdf   22764.000   0.149000   0.000
pair_coeff  4  ${O1}  buck/mdf   22764.000   0.149000   0.000
pair_coeff  4  4  buck/mdf   22764.000   0.149000   0.000
pair_coeff  ${O1}  ${O2}  buck/mdf   22764.000   0.149000   0.000
pair_coeff  4  ${O2}  buck/mdf   22764.000   0.149000   0.000
pair_coeff  4  5  buck/mdf   22764.000   0.149000   0.000
pair_coeff  ${O1}  ${O3}  buck/mdf   22764.000   0.149000   0.000
pair_coeff  4  ${O3}  buck/mdf   22764.000   0.149000   0.000
pair_coeff  4  6  buck/mdf   22764.000   0.149000   0.000

pair_coeff  ${O2}  ${O2}  buck/mdf   22764.000   0.149000   0.000
pair_coeff  5  ${O2}  buck/mdf   22764.000   0.149000   0.000
pair_coeff  5  5  buck/mdf   22764.000   0.149000   0.000
pair_coeff  ${O2}  ${O3}  buck/mdf   22764.000   0.149000   0.000
pair_coeff  5  ${O3}  buck/mdf   22764.000   0.149000   0.000
pair_coeff  5  6  buck/mdf   22764.000   0.149000   0.000

pair_coeff  ${O3}  ${O3}  buck/mdf   22764.000   0.149000   0.000
pair_coeff  6  ${O3}  buck/mdf   22764.000   0.149000   0.000
pair_coeff  6  6  buck/mdf   22764.000   0.149000   0.000

##############################################################################################
# 12-6 Lennard-Jones potentials
pair_coeff  ${O1}  ${H1}  lennard/mdf    6.391   0.000
pair_coeff  4  ${H1}  lennard/mdf    6.391   0.000
pair_coeff  4  7  lennard/mdf    6.391   0.000
pair_coeff  ${O2}  ${H1}  lennard/mdf    6.391   0.000
pair_coeff  5  ${H1}  lennard/mdf    6.391   0.000
pair_coeff  5  7  lennard/mdf    6.391   0.000
pair_coeff  ${O3}  ${H1}  lennard/mdf    7.800   0.000
pair_coeff  6  ${H1}  lennard/mdf    7.800   0.000
pair_coeff  6  7  lennard/mdf    7.800   0.000

##############################################################################################
# Coulombic interaction
pair_coeff      *      *  coul/long

#########################################################################################################
# Parameters for reciprocal space electrostatics
#########################################################################################################

kspace_style pppm 1.0e-5
kspace_modify fftbench no
fix md all nve
timestep 0.0002

change_box all x final 0.0 25.319 y final 0.0 25.319 z final 0.0 25.319 xy final 0.0 xz final 0.0 yz final 0.0
Changing box ...
  triclinic box = (0 0 0) to (25.319 25.319 25.319) with tilt (0 0 0)
  triclinic box = (0 0 0) to (25.319 25.319 25.319) with tilt (0 0 0)
  triclinic box = (0 0 0) to (25.319 25.319 25.319) with tilt (0 0 0)
  triclinic box = (0 0 0) to (25.319 25.319 25.319) with tilt (0 0 0)
  triclinic box = (0 0 0) to (25.319 25.319 25.319) with tilt (0 0 0)
  triclinic box = (0 0 0) to (25.319 25.319 25.319) with tilt (0 0 0)
fix ux all store/state 1 xu yu zu
fix ext all external pf/callback 1 1
fix_modify ext energy no
fix_modify ext virial no
compute get_pe all pe

run 0 pre yes post no
PPPM initialization ...
WARNING: System is not charge neutral, net charge = -3 (src/kspace.cpp:327)
  using 12-bit tables for long-range coulomb (src/kspace.cpp:342)
  G vector (1/distance) = 0.28934131
  grid = 18 18 18
  stencil order = 5
  estimated absolute RMS force accuracy = 7.7110449e-05
  estimated relative force accuracy = 5.3550243e-06
  using double precision KISS FFT
  3d grid and FFT values/proc = 15625 5832
Generated 0 of 21 mixed pair_coeff terms from geometric mixing rule
Neighbor list info ...
  update: every = 1 steps, delay = 0 steps, check = yes
  max neighbors/atom: 2000, page size: 100000
  master list distance cutoff = 12
  ghost atom cutoff = 12
  binsize = 6, bins = 5 5 5
  3 neighbor lists, perpetual/occasional/extra = 3 0 0
  (1) pair buck/mdf, perpetual, skip from (3)
      attributes: half, newton on
      pair build: skip
      stencil: none
      bin: none
  (2) pair lennard/mdf, perpetual, skip from (3)
      attributes: half, newton on
      pair build: skip
      stencil: none
      bin: none
  (3) pair coul/long, perpetual
      attributes: half, newton on
      pair build: half/bin/newton/tri
      stencil: half/bin/3d/tri
      bin: standard
Per MPI rank memory allocation (min/avg/max) = 9.773 | 9.773 | 9.773 Mbytes
   Step          Temp          E_pair         E_mol          TotEng         Press     
         0   7262.6078      0.94350642     1.8467133      4.6677512     -290.73403    
Loop time of 8.02e-07 on 1 procs for 0 steps with 3 atoms

run 0 pre yes post no
PPPM initialization ...
  using 12-bit tables for long-range coulomb (src/kspace.cpp:342)
  G vector (1/distance) = 0.28934131
  grid = 18 18 18
  stencil order = 5
  estimated absolute RMS force accuracy = 7.7110449e-05
  estimated relative force accuracy = 5.3550243e-06
  using double precision KISS FFT
  3d grid and FFT values/proc = 15625 5832
Generated 0 of 21 mixed pair_coeff terms from geometric mixing rule
Per MPI rank memory allocation (min/avg/max) = 9.773 | 9.773 | 9.773 Mbytes
   Step          Temp          E_pair         E_mol          TotEng         Press     
         0   7262.6078      0.94350642     1.8467133      4.6677512     -290.73403    
Loop time of 5.21e-07 on 1 procs for 0 steps with 3 atoms

run 1 pre yes post no
PPPM initialization ...
  using 12-bit tables for long-range coulomb (src/kspace.cpp:342)
  G vector (1/distance) = 0.28934131
  grid = 18 18 18
  stencil order = 5
  estimated absolute RMS force accuracy = 7.7110449e-05
  estimated relative force accuracy = 5.3550243e-06
  using double precision KISS FFT
  3d grid and FFT values/proc = 15625 5832
Generated 0 of 21 mixed pair_coeff terms from geometric mixing rule
Per MPI rank memory allocation (min/avg/max) = 9.773 | 9.773 | 9.773 Mbytes
   Step          Temp          E_pair         E_mol          TotEng         Press     
         0   7226.5121      0.94350642     1.8467133      4.6584197     -291.34812    
         1   7271.1756      1.0625042      1.4297655      4.372016      -232.09439    
Loop time of 0.0026704 on 1 procs for 1 steps with 3 atoms

run 1 pre yes post no
PPPM initialization ...
  using 12-bit tables for long-range coulomb (src/kspace.cpp:342)
  G vector (1/distance) = 0.28934131
  grid = 18 18 18
  stencil order = 5
  estimated absolute RMS force accuracy = 7.7110449e-05
  estimated relative force accuracy = 5.3550243e-06
  using double precision KISS FFT
  3d grid and FFT values/proc = 15625 5832
Generated 0 of 21 mixed pair_coeff terms from geometric mixing rule
Per MPI rank memory allocation (min/avg/max) = 9.773 | 9.773 | 9.773 Mbytes
   Step          Temp          E_pair         E_mol          TotEng         Press     
         1   7271.1756      1.0625042      1.4297655      4.372016      -232.09439    
         2   7565.0969      1.1933571      1.0603384      4.2094266     -163.61722    
Loop time of 0.00290341 on 1 procs for 1 steps with 3 atoms

run 1 pre yes post no
PPPM initialization ...
  using 12-bit tables for long-range coulomb (src/kspace.cpp:342)
  G vector (1/distance) = 0.28934131
  grid = 18 18 18
  stencil order = 5
  estimated absolute RMS force accuracy = 7.7110449e-05
  estimated relative force accuracy = 5.3550243e-06
  using double precision KISS FFT
  3d grid and FFT values/proc = 15625 5832
Generated 0 of 21 mixed pair_coeff terms from geometric mixing rule
Per MPI rank memory allocation (min/avg/max) = 9.773 | 9.773 | 9.773 Mbytes
   Step          Temp          E_pair         E_mol          TotEng         Press     
         2   7565.0969      1.1933571      1.0603384      4.2094266     -163.61722    
         3   8025.3274      1.3331482      0.73573591     4.1435941     -88.459008    
Loop time of 0.0030655 on 1 procs for 1 steps with 3 atoms

run 1 pre yes post no
PPPM initialization ...
  using 12-bit tables for long-range coulomb (src/kspace.cpp:342)
  G vector (1/distance) = 0.28934131
  grid = 18 18 18
  stencil order = 5
  estimated absolute RMS force accuracy = 7.7110449e-05
  estimated relative force accuracy = 5.3550243e-06
  using double precision KISS FFT
  3d grid and FFT values/proc = 15625 5832
Generated 0 of 21 mixed pair_coeff terms from geometric mixing rule
Per MPI rank memory allocation (min/avg/max) = 9.773 | 9.773 | 9.773 Mbytes
   Step          Temp          E_pair         E_mol          TotEng         Press     
         3   8025.3274      1.3331482      0.73573591     4.1435941     -88.459008    
         4   8451.2273      1.4785245      0.46166022     4.1249984     -11.690553    
Loop time of 0.00269007 on 1 procs for 1 steps with 3 atoms

run 1 pre yes post no
PPPM initialization ...
  using 12-bit tables for long-range coulomb (src/kspace.cpp:342)
  G vector (1/distance) = 0.28934131
  grid = 18 18 18
  stencil order = 5
  estimated absolute RMS force accuracy = 7.7110449e-05
  estimated relative force accuracy = 5.3550243e-06
  using double precision KISS FFT
  3d grid and FFT values/proc = 15625 5832
Generated 0 of 21 mixed pair_coeff terms from geometric mixing rule
Per MPI rank memory allocation (min/avg/max) = 9.773 | 9.773 | 9.773 Mbytes
   Step          Temp          E_pair         E_mol          TotEng         Press     
         4   8451.2273      1.4785245      0.46166022     4.1249984     -11.690553    
         5   8700.2926      1.6254094      0.2468177      4.1214292      62.077358    
Loop time of 0.00303229 on 1 procs for 1 steps with 3 atoms

run 1 pre yes post no
PPPM initialization ...
  using 12-bit tables for long-range coulomb (src/kspace.cpp:342)
  G vector (1/distance) = 0.28934131
  grid = 18 18 18
  stencil order = 5
  estimated absolute RMS force accuracy = 7.7110449e-05
  estimated relative force accuracy = 5.3550243e-06
  using double precision KISS FFT
  3d grid and FFT values/proc = 15625 5832
Generated 0 of 21 mixed pair_coeff terms from geometric mixing rule
Per MPI rank memory allocation (min/avg/max) = 9.773 | 9.773 | 9.773 Mbytes
   Step          Temp          E_pair         E_mol          TotEng         Press     
         5   8700.2926      1.6254094      0.2468177      4.1214292      62.077358    
         6   8716.2903      1.7699834      0.097766459    4.1210877      129.7677     
Loop time of 0.00322675 on 1 procs for 1 steps with 3 atoms

run 1 pre yes post no
PPPM initialization ...
  using 12-bit tables for long-range coulomb (src/kspace.cpp:342)
  G vector (1/distance) = 0.28934131
  grid = 18 18 18
  stencil order = 5
  estimated absolute RMS force accuracy = 7.7110449e-05
  estimated relative force accuracy = 5.3550243e-06
  using double precision KISS FFT
  3d grid and FFT values/proc = 15625 5832
Generated 0 of 21 mixed pair_coeff terms from geometric mixing rule
Per MPI rank memory allocation (min/avg/max) = 9.773 | 9.773 | 9.773 Mbytes
   Step          Temp          E_pair         E_mol          TotEng         Press     
         6   8716.2903      1.7699834      0.097766459    4.1210877      129.7677     
         7   8491.5359      1.9091963      0.016931941    4.1213626      189.51869    
Loop time of 0.00268404 on 1 procs for 1 steps with 3 atoms

run 1 pre yes post no
PPPM initialization ...
  using 12-bit tables for long-range coulomb (src/kspace.cpp:342)
  G vector (1/distance) = 0.28934131
  grid = 18 18 18
  stencil order = 5
  estimated absolute RMS force accuracy = 7.7110449e-05
  estimated relative force accuracy = 5.3550243e-06
  using double precision KISS FFT
  3d grid and FFT values/proc = 15625 5832
Generated 0 of 21 mixed pair_coeff terms from geometric mixing rule
Per MPI rank memory allocation (min/avg/max) = 9.773 | 9.773 | 9.773 Mbytes
   Step          Temp          E_pair         E_mol          TotEng         Press     
         7   8491.5359      1.9091963      0.016931941    4.1213626      189.51869    
         8   8041.2441      2.0407745      0.002285937    4.1218852      240.31451    
Loop time of 0.00264218 on 1 procs for 1 steps with 3 atoms

run 1 pre yes post no
PPPM initialization ...
  using 12-bit tables for long-range coulomb (src/kspace.cpp:342)
  G vector (1/distance) = 0.28934131
  grid = 18 18 18
  stencil order = 5
  estimated absolute RMS force accuracy = 7.7110449e-05
  estimated relative force accuracy = 5.3550243e-06
  using double precision KISS FFT
  3d grid and FFT values/proc = 15625 5832
Generated 0 of 21 mixed pair_coeff terms from geometric mixing rule
Per MPI rank memory allocation (min/avg/max) = 9.773 | 9.773 | 9.773 Mbytes
   Step          Temp          E_pair         E_mol          TotEng         Press     
         8   8041.2441      2.0407745      0.002285937    4.1218852      240.31451    
         9   7395.5101      2.1631205      0.04759695     4.1226069      281.825      
Loop time of 0.0026967 on 1 procs for 1 steps with 3 atoms

run 1 pre yes post no
PPPM initialization ...
  using 12-bit tables for long-range coulomb (src/kspace.cpp:342)
  G vector (1/distance) = 0.28934131
  grid = 18 18 18
  stencil order = 5
  estimated absolute RMS force accuracy = 7.7110449e-05
  estimated relative force accuracy = 5.3550243e-06
  using double precision KISS FFT
  3d grid and FFT values/proc = 15625 5832
Generated 0 of 21 mixed pair_coeff terms from geometric mixing rule
Per MPI rank memory allocation (min/avg/max) = 9.773 | 9.773 | 9.773 Mbytes
   Step          Temp          E_pair         E_mol          TotEng         Press     
         9   7395.5101      2.1631205      0.04759695     4.1226069      281.825      
        10   6596.6094      2.2751597      0.14296873     4.1234858      314.30752    
Loop time of 0.00385404 on 1 procs for 1 steps with 3 atoms

run 1 pre yes post no
PPPM initialization ...
  using 12-bit tables for long-range coulomb (src/kspace.cpp:342)
  G vector (1/distance) = 0.28934131
  grid = 18 18 18
  stencil order = 5
  estimated absolute RMS force accuracy = 7.7110449e-05
  estimated relative force accuracy = 5.3550243e-06
  using double precision KISS FFT
  3d grid and FFT values/proc = 15625 5832
Generated 0 of 21 mixed pair_coeff terms from geometric mixing rule
Per MPI rank memory allocation (min/avg/max) = 9.773 | 9.773 | 9.773 Mbytes
   Step          Temp          E_pair         E_mol          TotEng         Press     
        10   6596.6094      2.2751597      0.14296873     4.1234858      314.30752    
        11   5696.3941      2.3762225      0.2756103      4.1244662      338.50003    
Loop time of 0.00272192 on 1 procs for 1 steps with 3 atoms

run 1 pre yes post no
PPPM initialization ...
  using 12-bit tables for long-range coulomb (src/kspace.cpp:342)
  G vector (1/distance) = 0.28934131
  grid = 18 18 18
  stencil order = 5
  estimated absolute RMS force accuracy = 7.7110449e-05
  estimated relative force accuracy = 5.3550243e-06
  using double precision KISS FFT
  3d grid and FFT values/proc = 15625 5832
Generated 0 of 21 mixed pair_coeff terms from geometric mixing rule
Per MPI rank memory allocation (min/avg/max) = 9.773 | 9.773 | 9.773 Mbytes
   Step          Temp          E_pair         E_mol          TotEng         Press     
        11   5696.3941      2.3762225      0.2756103      4.1244662      338.50003    
        12   4752.9791      2.4659489      0.43079375     4.1254841      355.49558    
Loop time of 0.00269971 on 1 procs for 1 steps with 3 atoms

run 1 pre yes post no
PPPM initialization ...
  using 12-bit tables for long-range coulomb (src/kspace.cpp:342)
  G vector (1/distance) = 0.28934131
  grid = 18 18 18
  stencil order = 5
  estimated absolute RMS force accuracy = 7.7110449e-05
  estimated relative force accuracy = 5.3550243e-06
  using double precision KISS FFT
  3d grid and FFT values/proc = 15625 5832
Generated 0 of 21 mixed pair_coeff terms from geometric mixing rule
Per MPI rank memory allocation (min/avg/max) = 9.773 | 9.773 | 9.773 Mbytes
   Step          Temp          E_pair         E_mol          TotEng         Press     
        12   4752.9791      2.4659489      0.43079375     4.1254841      355.49558    
        13   3826.855       2.544211       0.59294029     4.126471       366.60359    
Loop time of 0.00268977 on 1 procs for 1 steps with 3 atoms

run 1 pre yes post no
PPPM initialization ...
  using 12-bit tables for long-range coulomb (src/kspace.cpp:342)
  G vector (1/distance) = 0.28934131
  grid = 18 18 18
  stencil order = 5
  estimated absolute RMS force accuracy = 7.7110449e-05
  estimated relative force accuracy = 5.3550243e-06
  using double precision KISS FFT
  3d grid and FFT values/proc = 15625 5832
Generated 0 of 21 mixed pair_coeff terms from geometric mixing rule
Per MPI rank memory allocation (min/avg/max) = 9.773 | 9.773 | 9.773 Mbytes
   Step          Temp          E_pair         E_mol          TotEng         Press     
        13   3826.855       2.544211       0.59294029     4.126471       366.60359    
        14   2976.7198      2.6110553      0.74676124     4.127359       373.20622    
Loop time of 0.00121446 on 1 procs for 1 steps with 3 atoms

run 1 pre yes post no
PPPM initialization ...
  using 12-bit tables for long-range coulomb (src/kspace.cpp:342)
  G vector (1/distance) = 0.28934131
  grid = 18 18 18
  stencil order = 5
  estimated absolute RMS force accuracy = 7.7110449e-05
  estimated relative force accuracy = 5.3550243e-06
  using double precision KISS FFT
  3d grid and FFT values/proc = 15625 5832
Generated 0 of 21 mixed pair_coeff terms from geometric mixing rule
Per MPI rank memory allocation (min/avg/max) = 9.773 | 9.773 | 9.773 Mbytes
   Step          Temp          E_pair         E_mol          TotEng         Press     
        14   2976.7198      2.6110553      0.74676124     4.127359       373.20622    
        15   2255.3543      2.6666567      0.87837216     4.1280837      376.61923    
Loop time of 0.00119105 on 1 procs for 1 steps with 3 atoms

run 1 pre yes post no
PPPM initialization ...
  using 12-bit tables for long-range coulomb (src/kspace.cpp:342)
  G vector (1/distance) = 0.28934131
  grid = 18 18 18
  stencil order = 5
  estimated absolute RMS force accuracy = 7.7110449e-05
  estimated relative force accuracy = 5.3550243e-06
  using double precision KISS FFT
  3d grid and FFT values/proc = 15625 5832
Generated 0 of 21 mixed pair_coeff terms from geometric mixing rule
Per MPI rank memory allocation (min/avg/max) = 9.773 | 9.773 | 9.773 Mbytes
   Step          Temp          E_pair         E_mol          TotEng         Press     
        15   2255.3543      2.6666567      0.87837216     4.1280837      376.61923    
        16   1705.8773      2.7112944      0.97629649     4.1285947      377.96721    
Loop time of 0.00127139 on 1 procs for 1 steps with 3 atoms

run 1 pre yes post no
PPPM initialization ...
  using 12-bit tables for long-range coulomb (src/kspace.cpp:342)
  G vector (1/distance) = 0.28934131
  grid = 18 18 18
  stencil order = 5
  estimated absolute RMS force accuracy = 7.7110449e-05
  estimated relative force accuracy = 5.3550243e-06
  using double precision KISS FFT
  3d grid and FFT values/proc = 15625 5832
Generated 0 of 21 mixed pair_coeff terms from geometric mixing rule
Per MPI rank memory allocation (min/avg/max) = 9.773 | 9.773 | 9.773 Mbytes
   Step          Temp          E_pair         E_mol          TotEng         Press     
        16   1705.8773      2.7112944      0.97629649     4.1285947      377.96721    
        17   1358.6907      2.745327       1.0322808      4.1288569      378.08188    
Loop time of 0.00117313 on 1 procs for 1 steps with 3 atoms

run 1 pre yes post no
PPPM initialization ...
  using 12-bit tables for long-range coulomb (src/kspace.cpp:342)
  G vector (1/distance) = 0.28934131
  grid = 18 18 18
  stencil order = 5
  estimated absolute RMS force accuracy = 7.7110449e-05
  estimated relative force accuracy = 5.3550243e-06
  using double precision KISS FFT
  3d grid and FFT values/proc = 15625 5832
Generated 0 of 21 mixed pair_coeff terms from geometric mixing rule
Per MPI rank memory allocation (min/avg/max) = 9.773 | 9.773 | 9.773 Mbytes
   Step          Temp          E_pair         E_mol          TotEng         Press     
        17   1358.6907      2.745327       1.0322808      4.1288569      378.08188    
        18   1229.3665      2.7691805      1.0418574      4.1288541      377.43135    
Loop time of 0.00120157 on 1 procs for 1 steps with 3 atoms

run 1 pre yes post no
PPPM initialization ...
  using 12-bit tables for long-range coulomb (src/kspace.cpp:342)
  G vector (1/distance) = 0.28934131
  grid = 18 18 18
  stencil order = 5
  estimated absolute RMS force accuracy = 7.7110449e-05
  estimated relative force accuracy = 5.3550243e-06
  using double precision KISS FFT
  3d grid and FFT values/proc = 15625 5832
Generated 0 of 21 mixed pair_coeff terms from geometric mixing rule
Per MPI rank memory allocation (min/avg/max) = 9.773 | 9.773 | 9.773 Mbytes
   Step          Temp          E_pair         E_mol          TotEng         Press     
        18   1229.3665      2.7691805      1.0418574      4.1288541      377.43135    
        19   1317.6511      2.7833378      1.0046117      4.128589       376.0854     
Loop time of 0.00120433 on 1 procs for 1 steps with 3 atoms

run 1 pre yes post no
PPPM initialization ...
  using 12-bit tables for long-range coulomb (src/kspace.cpp:342)
  G vector (1/distance) = 0.28934131
  grid = 18 18 18
  stencil order = 5
  estimated absolute RMS force accuracy = 7.7110449e-05
  estimated relative force accuracy = 5.3550243e-06
  using double precision KISS FFT
  3d grid and FFT values/proc = 15625 5832
Generated 0 of 21 mixed pair_coeff terms from geometric mixing rule
Per MPI rank memory allocation (min/avg/max) = 9.773 | 9.773 | 9.773 Mbytes
   Step          Temp          E_pair         E_mol          TotEng         Press     
        19   1317.6511      2.7833378      1.0046117      4.128589       376.0854     
        20   1607.6586      2.7883383      0.92413576     4.1280864      373.71912    
Loop time of 0.00115999 on 1 procs for 1 steps with 3 atoms

run 1 pre yes post no
PPPM initialization ...
  using 12-bit tables for long-range coulomb (src/kspace.cpp:342)
  G vector (1/distance) = 0.28934131
  grid = 18 18 18
  stencil order = 5
  estimated absolute RMS force accuracy = 7.7110449e-05
  estimated relative force accuracy = 5.3550243e-06
  using double precision KISS FFT
  3d grid and FFT values/proc = 15625 5832
Generated 0 of 21 mixed pair_coeff terms from geometric mixing rule
Per MPI rank memory allocation (min/avg/max) = 9.773 | 9.773 | 9.773 Mbytes
   Step          Temp          E_pair         E_mol          TotEng         Press     
        20   1607.6586      2.7883383      0.92413576     4.1280864      373.71912    
        21   2069.2209      2.7847715      0.80767863     4.1273858      369.65325    
Loop time of 0.00118767 on 1 procs for 1 steps with 3 atoms

run 1 pre yes post no
PPPM initialization ...
  using 12-bit tables for long-range coulomb (src/kspace.cpp:342)
  G vector (1/distance) = 0.28934131
  grid = 18 18 18
  stencil order = 5
  estimated absolute RMS force accuracy = 7.7110449e-05
  estimated relative force accuracy = 5.3550243e-06
  using double precision KISS FFT
  3d grid and FFT values/proc = 15625 5832
Generated 0 of 21 mixed pair_coeff terms from geometric mixing rule
Per MPI rank memory allocation (min/avg/max) = 9.773 | 9.773 | 9.773 Mbytes
   Step          Temp          E_pair         E_mol          TotEng         Press     
        21   2069.2209      2.7847715      0.80767863     4.1273858      369.65325    
        22   2660.2669      2.7732797      0.66552788     4.1265406      362.92767    
Loop time of 0.00117443 on 1 procs for 1 steps with 3 atoms

run 1 pre yes post no
PPPM initialization ...
  using 12-bit tables for long-range coulomb (src/kspace.cpp:342)
  G vector (1/distance) = 0.28934131
  grid = 18 18 18
  stencil order = 5
  estimated absolute RMS force accuracy = 7.7110449e-05
  estimated relative force accuracy = 5.3550243e-06
  using double precision KISS FFT
  3d grid and FFT values/proc = 15625 5832
Generated 0 of 21 mixed pair_coeff terms from geometric mixing rule
Per MPI rank memory allocation (min/avg/max) = 9.773 | 9.773 | 9.773 Mbytes
   Step          Temp          E_pair         E_mol          TotEng         Press     
        22   2660.2669      2.7732797      0.66552788     4.1265406      362.92767    
        23   3330.0281      2.7545583      0.51017612     4.1256143      352.40113    
Loop time of 0.00121488 on 1 procs for 1 steps with 3 atoms

run 1 pre yes post no
PPPM initialization ...
  using 12-bit tables for long-range coulomb (src/kspace.cpp:342)
  G vector (1/distance) = 0.28934131
  grid = 18 18 18
  stencil order = 5
  estimated absolute RMS force accuracy = 7.7110449e-05
  estimated relative force accuracy = 5.3550243e-06
  using double precision KISS FFT
  3d grid and FFT values/proc = 15625 5832
Generated 0 of 21 mixed pair_coeff terms from geometric mixing rule
Per MPI rank memory allocation (min/avg/max) = 9.773 | 9.773 | 9.773 Mbytes
   Step          Temp          E_pair         E_mol          TotEng         Press     
        23   3330.0281      2.7545583      0.51017612     4.1256143      352.40113    
        24   4022.8138      2.7293541      0.35534057     4.1246737      336.86858    
Loop time of 0.00117006 on 1 procs for 1 steps with 3 atoms

run 1 pre yes post no
PPPM initialization ...
  using 12-bit tables for long-range coulomb (src/kspace.cpp:342)
  G vector (1/distance) = 0.28934131
  grid = 18 18 18
  stencil order = 5
  estimated absolute RMS force accuracy = 7.7110449e-05
  estimated relative force accuracy = 5.3550243e-06
  using double precision KISS FFT
  3d grid and FFT values/proc = 15625 5832
Generated 0 of 21 mixed pair_coeff terms from geometric mixing rule
Per MPI rank memory allocation (min/avg/max) = 9.773 | 9.773 | 9.773 Mbytes
   Step          Temp          E_pair         E_mol          TotEng         Press     
        24   4022.8138      2.7293541      0.35534057     4.1246737      336.86858    
        25   4682.0751      2.6984649      0.21490971     4.123786       315.18722    
Loop time of 0.00115781 on 1 procs for 1 steps with 3 atoms

run 1 pre yes post no
PPPM initialization ...
  using 12-bit tables for long-range coulomb (src/kspace.cpp:342)
  G vector (1/distance) = 0.28934131
  grid = 18 18 18
  stencil order = 5
  estimated absolute RMS force accuracy = 7.7110449e-05
  estimated relative force accuracy = 5.3550243e-06
  using double precision KISS FFT
  3d grid and FFT values/proc = 15625 5832
Generated 0 of 21 mixed pair_coeff terms from geometric mixing rule
Per MPI rank memory allocation (min/avg/max) = 9.773 | 9.773 | 9.773 Mbytes
   Step          Temp          E_pair         E_mol          TotEng         Press     
        25   4682.0751      2.6984649      0.21490971     4.123786       315.18722    
        26   5254.4695      2.662734       0.10189287     4.1230139      286.40121    
Loop time of 0.00117303 on 1 procs for 1 steps with 3 atoms

run 1 pre yes post no
PPPM initialization ...
  using 12-bit tables for long-range coulomb (src/kspace.cpp:342)
  G vector (1/distance) = 0.28934131
  grid = 18 18 18
  stencil order = 5
  estimated absolute RMS force accuracy = 7.7110449e-05
  estimated relative force accuracy = 5.3550243e-06
  using double precision KISS FFT
  3d grid and FFT values/proc = 15625 5832
Generated 0 of 21 mixed pair_coeff terms from geometric mixing rule
Per MPI rank memory allocation (min/avg/max) = 9.773 | 9.773 | 9.773 Mbytes
   Step          Temp          E_pair         E_mol          TotEng         Press     
        26   5254.4695      2.662734       0.10189287     4.1230139      286.40121    
        27   5693.6498      2.6230411      0.027445181    4.1224103      249.85577    
Loop time of 0.00116716 on 1 procs for 1 steps with 3 atoms

run 1 pre yes post no
PPPM initialization ...
  using 12-bit tables for long-range coulomb (src/kspace.cpp:342)
  G vector (1/distance) = 0.28934131
  grid = 18 18 18
  stencil order = 5
  estimated absolute RMS force accuracy = 7.7110449e-05
  estimated relative force accuracy = 5.3550243e-06
  using double precision KISS FFT
  3d grid and FFT values/proc = 15625 5832
Generated 0 of 21 mixed pair_coeff terms from geometric mixing rule
Per MPI rank memory allocation (min/avg/max) = 9.773 | 9.773 | 9.773 Mbytes
   Step          Temp          E_pair         E_mol          TotEng         Press     
        27   5693.6498      2.6230411      0.027445181    4.1224103      249.85577    
        28   5963.525       2.5802903      3.3587329e-05  4.1220161      205.29232    
Loop time of 0.00154284 on 1 procs for 1 steps with 3 atoms

run 1 pre yes post no
PPPM initialization ...
  using 12-bit tables for long-range coulomb (src/kspace.cpp:342)
  G vector (1/distance) = 0.28934131
  grid = 18 18 18
  stencil order = 5
  estimated absolute RMS force accuracy = 7.7110449e-05
  estimated relative force accuracy = 5.3550243e-06
  using double precision KISS FFT
  3d grid and FFT values/proc = 15625 5832
Generated 0 of 21 mixed pair_coeff terms from geometric mixing rule
Per MPI rank memory allocation (min/avg/max) = 9.773 | 9.773 | 9.773 Mbytes
   Step          Temp          E_pair         E_mol          TotEng         Press     
        28   5963.525       2.5802903      3.3587329e-05  4.1220161      205.29232    
        29   6040.7801      2.5353952      0.024799036    4.1218585      152.9175     
Loop time of 0.00151816 on 1 procs for 1 steps with 3 atoms

run 1 pre yes post no
PPPM initialization ...
  using 12-bit tables for long-range coulomb (src/kspace.cpp:342)
  G vector (1/distance) = 0.28934131
  grid = 18 18 18
  stencil order = 5
  estimated absolute RMS force accuracy = 7.7110449e-05
  estimated relative force accuracy = 5.3550243e-06
  using double precision KISS FFT
  3d grid and FFT values/proc = 15625 5832
Generated 0 of 21 mixed pair_coeff terms from geometric mixing rule
Per MPI rank memory allocation (min/avg/max) = 9.773 | 9.773 | 9.773 Mbytes
   Step          Temp          E_pair         E_mol          TotEng         Press     
        29   6040.7801      2.5353952      0.024799036    4.1218585      152.9175     
        30   5916.4897      2.4892571      0.10315706     4.1219468      93.440302    
Loop time of 0.00122204 on 1 procs for 1 steps with 3 atoms

run 1 pre yes post no
PPPM initialization ...
  using 12-bit tables for long-range coulomb (src/kspace.cpp:342)
  G vector (1/distance) = 0.28934131
  grid = 18 18 18
  stencil order = 5
  estimated absolute RMS force accuracy = 7.7110449e-05
  estimated relative force accuracy = 5.3550243e-06
  using double precision KISS FFT
  3d grid and FFT values/proc = 15625 5832
Generated 0 of 21 mixed pair_coeff terms from geometric mixing rule
Per MPI rank memory allocation (min/avg/max) = 9.773 | 9.773 | 9.773 Mbytes
   Step          Temp          E_pair         E_mol          TotEng         Press     
        30   5916.4897      2.4892571      0.10315706     4.1219468      93.440302    
        31   5596.7173      2.442745       0.23266295     4.1222729      28.074542    
Loop time of 0.00346167 on 1 procs for 1 steps with 3 atoms

run 1 pre yes post no
PPPM initialization ...
  using 12-bit tables for long-range coulomb (src/kspace.cpp:342)
  G vector (1/distance) = 0.28934131
  grid = 18 18 18
  stencil order = 5
  estimated absolute RMS force accuracy = 7.7110449e-05
  estimated relative force accuracy = 5.3550243e-06
  using double precision KISS FFT
  3d grid and FFT values/proc = 15625 5832
Generated 0 of 21 mixed pair_coeff terms from geometric mixing rule
Per MPI rank memory allocation (min/avg/max) = 9.773 | 9.773 | 9.773 Mbytes
   Step          Temp          E_pair         E_mol          TotEng         Press     
        31   5596.7173      2.442745       0.23266295     4.1222729      28.074542    
        32   5102.0607      2.3966774      0.40715026     4.1228139     -41.494675    
Loop time of 0.00289716 on 1 procs for 1 steps with 3 atoms

run 1 pre yes post no
PPPM initialization ...
  using 12-bit tables for long-range coulomb (src/kspace.cpp:342)
  G vector (1/distance) = 0.28934131
  grid = 18 18 18
  stencil order = 5
  estimated absolute RMS force accuracy = 7.7110449e-05
  estimated relative force accuracy = 5.3550243e-06
  using double precision KISS FFT
  3d grid and FFT values/proc = 15625 5832
Generated 0 of 21 mixed pair_coeff terms from geometric mixing rule
Per MPI rank memory allocation (min/avg/max) = 9.773 | 9.773 | 9.773 Mbytes
   Step          Temp          E_pair         E_mol          TotEng         Press     
        32   5102.0607      2.3966774      0.40715026     4.1228139     -41.494675    
        33   4466.1716      2.3518007      0.61713301     4.1235297     -113.17908    
Loop time of 0.00265273 on 1 procs for 1 steps with 3 atoms

run 1 pre yes post no
PPPM initialization ...
  using 12-bit tables for long-range coulomb (src/kspace.cpp:342)
  G vector (1/distance) = 0.28934131
  grid = 18 18 18
  stencil order = 5
  estimated absolute RMS force accuracy = 7.7110449e-05
  estimated relative force accuracy = 5.3550243e-06
  using double precision KISS FFT
  3d grid and FFT values/proc = 15625 5832
Generated 0 of 21 mixed pair_coeff terms from geometric mixing rule
Per MPI rank memory allocation (min/avg/max) = 9.773 | 9.773 | 9.773 Mbytes
   Step          Temp          E_pair         E_mol          TotEng         Press     
        33   4466.1716      2.3518007      0.61713301     4.1235297     -113.17908    
        34   3733.3538      2.3087798      0.85044387     4.1243713     -184.5857     
Loop time of 0.00296836 on 1 procs for 1 steps with 3 atoms

run 1 pre yes post no
PPPM initialization ...
  using 12-bit tables for long-range coulomb (src/kspace.cpp:342)
  G vector (1/distance) = 0.28934131
  grid = 18 18 18
  stencil order = 5
  estimated absolute RMS force accuracy = 7.7110449e-05
  estimated relative force accuracy = 5.3550243e-06
  using double precision KISS FFT
  3d grid and FFT values/proc = 15625 5832
Generated 0 of 21 mixed pair_coeff terms from geometric mixing rule
Per MPI rank memory allocation (min/avg/max) = 9.773 | 9.773 | 9.773 Mbytes
   Step          Temp          E_pair         E_mol          TotEng         Press     
        34   3733.3538      2.3087798      0.85044387     4.1243713     -184.5857     
        35   2955.4014      2.2681908      1.0930645      4.1252866     -253.14002    
Loop time of 0.00326552 on 1 procs for 1 steps with 3 atoms

run 1 pre yes post no
PPPM initialization ...
  using 12-bit tables for long-range coulomb (src/kspace.cpp:342)
  G vector (1/distance) = 0.28934131
  grid = 18 18 18
  stencil order = 5
  estimated absolute RMS force accuracy = 7.7110449e-05
  estimated relative force accuracy = 5.3550243e-06
  using double precision KISS FFT
  3d grid and FFT values/proc = 15625 5832
Generated 0 of 21 mixed pair_coeff terms from geometric mixing rule
Per MPI rank memory allocation (min/avg/max) = 9.773 | 9.773 | 9.773 Mbytes
   Step          Temp          E_pair         E_mol          TotEng         Press     
        35   2955.4014      2.2681908      1.0930645      4.1252866     -253.14002    
        36   2187.8869      2.2305206      1.3300908      4.1262245     -316.22634    
Loop time of 0.00278504 on 1 procs for 1 steps with 3 atoms

run 1 pre yes post no
PPPM initialization ...
  using 12-bit tables for long-range coulomb (src/kspace.cpp:342)
  G vector (1/distance) = 0.28934131
  grid = 18 18 18
  stencil order = 5
  estimated absolute RMS force accuracy = 7.7110449e-05
  estimated relative force accuracy = 5.3550243e-06
  using double precision KISS FFT
  3d grid and FFT values/proc = 15625 5832
Generated 0 of 21 mixed pair_coeff terms from geometric mixing rule
Per MPI rank memory allocation (min/avg/max) = 9.773 | 9.773 | 9.773 Mbytes
   Step          Temp          E_pair         E_mol          TotEng         Press     
        36   2187.8869      2.2305206      1.3300908      4.1262245     -316.22634    
        37   1486.1602      2.1961748      1.5467649      4.1271423     -371.33582    
Loop time of 0.0028028 on 1 procs for 1 steps with 3 atoms

run 1 pre yes post no
PPPM initialization ...
  using 12-bit tables for long-range coulomb (src/kspace.cpp:342)
  G vector (1/distance) = 0.28934131
  grid = 18 18 18
  stencil order = 5
  estimated absolute RMS force accuracy = 7.7110449e-05
  estimated relative force accuracy = 5.3550243e-06
  using double precision KISS FFT
  3d grid and FFT values/proc = 15625 5832
Generated 0 of 21 mixed pair_coeff terms from geometric mixing rule
Per MPI rank memory allocation (min/avg/max) = 9.773 | 9.773 | 9.773 Mbytes
   Step          Temp          E_pair         E_mol          TotEng         Press     
        37   1486.1602      2.1961748      1.5467649      4.1271423     -371.33582    
        38   901.30589      2.1654898      1.7295033      4.1279989     -416.21371    
Loop time of 0.00356524 on 1 procs for 1 steps with 3 atoms

run 1 pre yes post no
PPPM initialization ...
  using 12-bit tables for long-range coulomb (src/kspace.cpp:342)
  G vector (1/distance) = 0.28934131
  grid = 18 18 18
  stencil order = 5
  estimated absolute RMS force accuracy = 7.7110449e-05
  estimated relative force accuracy = 5.3550243e-06
  using double precision KISS FFT
  3d grid and FFT values/proc = 15625 5832
Generated 0 of 21 mixed pair_coeff terms from geometric mixing rule
Per MPI rank memory allocation (min/avg/max) = 9.773 | 9.773 | 9.773 Mbytes
   Step          Temp          E_pair         E_mol          TotEng         Press     
        38   901.30589      2.1654898      1.7295033      4.1279989     -416.21371    
        39   476.3636       2.1387435      1.8668411      4.1287343     -448.99456    
Loop time of 0.00275465 on 1 procs for 1 steps with 3 atoms

run 1 pre yes post no
PPPM initialization ...
  using 12-bit tables for long-range coulomb (src/kspace.cpp:342)
  G vector (1/distance) = 0.28934131
  grid = 18 18 18
  stencil order = 5
  estimated absolute RMS force accuracy = 7.7110449e-05
  estimated relative force accuracy = 5.3550243e-06
  using double precision KISS FFT
  3d grid and FFT values/proc = 15625 5832
Generated 0 of 21 mixed pair_coeff terms from geometric mixing rule
Per MPI rank memory allocation (min/avg/max) = 9.773 | 9.773 | 9.773 Mbytes
   Step          Temp          E_pair         E_mol          TotEng         Press     
        39   476.3636       2.1387435      1.8668411      4.1287343     -448.99456    
        40   243.17842      2.1161802      1.9502224      4.1292691     -468.31355    
Loop time of 0.00271251 on 1 procs for 1 steps with 3 atoms

run 1 pre yes post no
PPPM initialization ...
  using 12-bit tables for long-range coulomb (src/kspace.cpp:342)
  G vector (1/distance) = 0.28934131
  grid = 18 18 18
  stencil order = 5
  estimated absolute RMS force accuracy = 7.7110449e-05
  estimated relative force accuracy = 5.3550243e-06
  using double precision KISS FFT
  3d grid and FFT values/proc = 15625 5832
Generated 0 of 21 mixed pair_coeff terms from geometric mixing rule
Per MPI rank memory allocation (min/avg/max) = 9.773 | 9.773 | 9.773 Mbytes
   Step          Temp          E_pair         E_mol          TotEng         Press     
        40   243.17842      2.1161802      1.9502224      4.1292691     -468.31355    
        41   220.18222      2.0980126      1.9745735      4.1295077     -473.38567    
Loop time of 0.00292066 on 1 procs for 1 steps with 3 atoms

run 1 pre yes post no
PPPM initialization ...
  using 12-bit tables for long-range coulomb (src/kspace.cpp:342)
  G vector (1/distance) = 0.28934131
  grid = 18 18 18
  stencil order = 5
  estimated absolute RMS force accuracy = 7.7110449e-05
  estimated relative force accuracy = 5.3550243e-06
  using double precision KISS FFT
  3d grid and FFT values/proc = 15625 5832
Generated 0 of 21 mixed pair_coeff terms from geometric mixing rule
Per MPI rank memory allocation (min/avg/max) = 9.773 | 9.773 | 9.773 Mbytes
   Step          Temp          E_pair         E_mol          TotEng         Press     
        41   220.18222      2.0980126      1.9745735      4.1295077     -473.38567    
        42   411.26671      2.0844387      1.9386232      4.1293826     -464.04634    
Loop time of 0.00263908 on 1 procs for 1 steps with 3 atoms

run 1 pre yes post no
PPPM initialization ...
  using 12-bit tables for long-range coulomb (src/kspace.cpp:342)
  G vector (1/distance) = 0.28934131
  grid = 18 18 18
  stencil order = 5
  estimated absolute RMS force accuracy = 7.7110449e-05
  estimated relative force accuracy = 5.3550243e-06
  using double precision KISS FFT
  3d grid and FFT values/proc = 15625 5832
Generated 0 of 21 mixed pair_coeff terms from geometric mixing rule
Per MPI rank memory allocation (min/avg/max) = 9.773 | 9.773 | 9.773 Mbytes
   Step          Temp          E_pair         E_mol          TotEng         Press     
        42   411.26671      2.0844387      1.9386232      4.1293826     -464.04634    
        43   805.72605      2.0756377      1.8449542      4.1288885     -440.75472    
Loop time of 0.00277601 on 1 procs for 1 steps with 3 atoms

run 1 pre yes post no
PPPM initialization ...
  using 12-bit tables for long-range coulomb (src/kspace.cpp:342)
  G vector (1/distance) = 0.28934131
  grid = 18 18 18
  stencil order = 5
  estimated absolute RMS force accuracy = 7.7110449e-05
  estimated relative force accuracy = 5.3550243e-06
  using double precision KISS FFT
  3d grid and FFT values/proc = 15625 5832
Generated 0 of 21 mixed pair_coeff terms from geometric mixing rule
Per MPI rank memory allocation (min/avg/max) = 9.773 | 9.773 | 9.773 Mbytes
   Step          Temp          E_pair         E_mol          TotEng         Press     
        43   805.72605      2.0756377      1.8449542      4.1288885     -440.75472    
        44   1379.1512      2.0717633      1.699793       4.1280949     -404.56235    
Loop time of 0.00298142 on 1 procs for 1 steps with 3 atoms

run 1 pre yes post no
PPPM initialization ...
  using 12-bit tables for long-range coulomb (src/kspace.cpp:342)
  G vector (1/distance) = 0.28934131
  grid = 18 18 18
  stencil order = 5
  estimated absolute RMS force accuracy = 7.7110449e-05
  estimated relative force accuracy = 5.3550243e-06
  using double precision KISS FFT
  3d grid and FFT values/proc = 15625 5832
Generated 0 of 21 mixed pair_coeff terms from geometric mixing rule
Per MPI rank memory allocation (min/avg/max) = 9.773 | 9.773 | 9.773 Mbytes
   Step          Temp          E_pair         E_mol          TotEng         Press     
        44   1379.1512      2.0717633      1.699793       4.1280949     -404.56235    
        45   2095.1761      2.0729189      1.5125534      4.1271179     -357.05044    
Loop time of 0.00304967 on 1 procs for 1 steps with 3 atoms

run 1 pre yes post no
PPPM initialization ...
  using 12-bit tables for long-range coulomb (src/kspace.cpp:342)
  G vector (1/distance) = 0.28934131
  grid = 18 18 18
  stencil order = 5
  estimated absolute RMS force accuracy = 7.7110449e-05
  estimated relative force accuracy = 5.3550243e-06
  using double precision KISS FFT
  3d grid and FFT values/proc = 15625 5832
Generated 0 of 21 mixed pair_coeff terms from geometric mixing rule
Per MPI rank memory allocation (min/avg/max) = 9.773 | 9.773 | 9.773 Mbytes
   Step          Temp          E_pair         E_mol          TotEng         Press     
        45   2095.1761      2.0729189      1.5125534      4.1271179     -357.05044    
        46   2908.0304      2.0791312      1.2951631      4.1260792     -300.23799    
Loop time of 0.0029046 on 1 procs for 1 steps with 3 atoms

run 1 pre yes post no
PPPM initialization ...
  using 12-bit tables for long-range coulomb (src/kspace.cpp:342)
  G vector (1/distance) = 0.28934131
  grid = 18 18 18
  stencil order = 5
  estimated absolute RMS force accuracy = 7.7110449e-05
  estimated relative force accuracy = 5.3550243e-06
  using double precision KISS FFT
  3d grid and FFT values/proc = 15625 5832
Generated 0 of 21 mixed pair_coeff terms from geometric mixing rule
Per MPI rank memory allocation (min/avg/max) = 9.773 | 9.773 | 9.773 Mbytes
   Step          Temp          E_pair         E_mol          TotEng         Press     
        46   2908.0304      2.0791312      1.2951631      4.1260792     -300.23799    
        47   3765.8374      2.090317       1.0612111      4.1250735     -236.4639     
Loop time of 0.00272533 on 1 procs for 1 steps with 3 atoms

run 1 pre yes post no
PPPM initialization ...
  using 12-bit tables for long-range coulomb (src/kspace.cpp:342)
  G vector (1/distance) = 0.28934131
  grid = 18 18 18
  stencil order = 5
  estimated absolute RMS force accuracy = 7.7110449e-05
  estimated relative force accuracy = 5.3550243e-06
  using double precision KISS FFT
  3d grid and FFT values/proc = 15625 5832
Generated 0 of 21 mixed pair_coeff terms from geometric mixing rule
Per MPI rank memory allocation (min/avg/max) = 9.773 | 9.773 | 9.773 Mbytes
   Step          Temp          E_pair         E_mol          TotEng         Press     
        47   3765.8374      2.090317       1.0612111      4.1250735     -236.4639     
        48   4614.4798      2.1062561      0.82497211     4.1241649     -168.24897    
Loop time of 0.00272168 on 1 procs for 1 steps with 3 atoms

run 1 pre yes post no
PPPM initialization ...
  using 12-bit tables for long-range coulomb (src/kspace.cpp:342)
  G vector (1/distance) = 0.28934131
  grid = 18 18 18
  stencil order = 5
  estimated absolute RMS force accuracy = 7.7110449e-05
  estimated relative force accuracy = 5.3550243e-06
  using double precision KISS FFT
  3d grid and FFT values/proc = 15625 5832
Generated 0 of 21 mixed pair_coeff terms from geometric mixing rule
Per MPI rank memory allocation (min/avg/max) = 9.773 | 9.773 | 9.773 Mbytes
   Step          Temp          E_pair         E_mol          TotEng         Press     
        48   4614.4798      2.1062561      0.82497211     4.1241649     -168.24897    
        49   5401.7068      2.1265658      0.60037891     4.1233955     -98.148491    
Loop time of 0.00269531 on 1 procs for 1 steps with 3 atoms

run 1 pre yes post no
PPPM initialization ...
  using 12-bit tables for long-range coulomb (src/kspace.cpp:342)
  G vector (1/distance) = 0.28934131
  grid = 18 18 18
  stencil order = 5
  estimated absolute RMS force accuracy = 7.7110449e-05
  estimated relative force accuracy = 5.3550243e-06
  using double precision KISS FFT
  3d grid and FFT values/proc = 15625 5832
Generated 0 of 21 mixed pair_coeff terms from geometric mixing rule
Per MPI rank memory allocation (min/avg/max) = 9.773 | 9.773 | 9.773 Mbytes
   Step          Temp          E_pair         E_mol          TotEng         Press     
        49   5401.7068      2.1265658      0.60037891     4.1233955     -98.148491    
        50   6081.0955      2.1506946      0.40002297     4.1228041     -28.606885    
Loop time of 0.00269221 on 1 procs for 1 steps with 3 atoms

run 1 pre yes post no
PPPM initialization ...
  using 12-bit tables for long-range coulomb (src/kspace.cpp:342)
  G vector (1/distance) = 0.28934131
  grid = 18 18 18
  stencil order = 5
  estimated absolute RMS force accuracy = 7.7110449e-05
  estimated relative force accuracy = 5.3550243e-06
  using double precision KISS FFT
  3d grid and FFT values/proc = 15625 5832
Generated 0 of 21 mixed pair_coeff terms from geometric mixing rule
Per MPI rank memory allocation (min/avg/max) = 9.773 | 9.773 | 9.773 Mbytes
   Step          Temp          E_pair         E_mol          TotEng         Press     
        50   6081.0955      2.1506946      0.40002297     4.1228041     -28.606885    
        51   6615.5207      2.1779135      0.23426039     4.1224202      38.173115    
Loop time of 0.00291788 on 1 procs for 1 steps with 3 atoms

run 1 pre yes post no
PPPM initialization ...
  using 12-bit tables for long-range coulomb (src/kspace.cpp:342)
  G vector (1/distance) = 0.28934131
  grid = 18 18 18
  stencil order = 5
  estimated absolute RMS force accuracy = 7.7110449e-05
  estimated relative force accuracy = 5.3550243e-06
  using double precision KISS FFT
  3d grid and FFT values/proc = 15625 5832
Generated 0 of 21 mixed pair_coeff terms from geometric mixing rule
Per MPI rank memory allocation (min/avg/max) = 9.773 | 9.773 | 9.773 Mbytes
   Step          Temp          E_pair         E_mol          TotEng         Press     
        51   6615.5207      2.1779135      0.23426039     4.1224202      38.173115    
        52   6979.8809      2.2073412      0.11049044     4.1222724      100.33932    
Loop time of 0.00283072 on 1 procs for 1 steps with 3 atoms

run 1 pre yes post no
PPPM initialization ...
  using 12-bit tables for long-range coulomb (src/kspace.cpp:342)
  G vector (1/distance) = 0.28934131
  grid = 18 18 18
  stencil order = 5
  estimated absolute RMS force accuracy = 7.7110449e-05
  estimated relative force accuracy = 5.3550243e-06
  using double precision KISS FFT
  3d grid and FFT values/proc = 15625 5832
Generated 0 of 21 mixed pair_coeff terms from geometric mixing rule
Per MPI rank memory allocation (min/avg/max) = 9.773 | 9.773 | 9.773 Mbytes
   Step          Temp          E_pair         E_mol          TotEng         Press     
        52   6979.8809      2.2073412      0.11049044     4.1222724      100.33932    
        53   7162.9042      2.2379536      0.032659387    4.122369       156.46861    
Loop time of 0.00271758 on 1 procs for 1 steps with 3 atoms

run 1 pre yes post no
PPPM initialization ...
  using 12-bit tables for long-range coulomb (src/kspace.cpp:342)
  G vector (1/distance) = 0.28934131
  grid = 18 18 18
  stencil order = 5
  estimated absolute RMS force accuracy = 7.7110449e-05
  estimated relative force accuracy = 5.3550243e-06
  using double precision KISS FFT
  3d grid and FFT values/proc = 15625 5832
Generated 0 of 21 mixed pair_coeff terms from geometric mixing rule
Per MPI rank memory allocation (min/avg/max) = 9.773 | 9.773 | 9.773 Mbytes
   Step          Temp          E_pair         E_mol          TotEng         Press     
        53   7162.9042      2.2379536      0.032659387    4.122369       156.46861    
        54   7167.9102      2.2686276      0.0010272254   4.1227051      205.61245    
Loop time of 0.0027441 on 1 procs for 1 steps with 3 atoms

run 1 pre yes post no
PPPM initialization ...
  using 12-bit tables for long-range coulomb (src/kspace.cpp:342)
  G vector (1/distance) = 0.28934131
  grid = 18 18 18
  stencil order = 5
  estimated absolute RMS force accuracy = 7.7110449e-05
  estimated relative force accuracy = 5.3550243e-06
  using double precision KISS FFT
  3d grid and FFT values/proc = 15625 5832
Generated 0 of 21 mixed pair_coeff terms from geometric mixing rule
Per MPI rank memory allocation (min/avg/max) = 9.773 | 9.773 | 9.773 Mbytes
   Step          Temp          E_pair         E_mol          TotEng         Press     
        54   7167.9102      2.2686276      0.0010272254   4.1227051      205.61245    
        55   7012.4651      2.2981745      0.01221745     4.1232565      247.30555    
Loop time of 0.00286555 on 1 procs for 1 steps with 3 atoms

run 1 pre yes post no
PPPM initialization ...
  using 12-bit tables for long-range coulomb (src/kspace.cpp:342)
  G vector (1/distance) = 0.28934131
  grid = 18 18 18
  stencil order = 5
  estimated absolute RMS force accuracy = 7.7110449e-05
  estimated relative force accuracy = 5.3550243e-06
  using double precision KISS FFT
  3d grid and FFT values/proc = 15625 5832
Generated 0 of 21 mixed pair_coeff terms from geometric mixing rule
Per MPI rank memory allocation (min/avg/max) = 9.773 | 9.773 | 9.773 Mbytes
   Step          Temp          E_pair         E_mol          TotEng         Press     
        55   7012.4651      2.2981745      0.01221745     4.1232565      247.30555    
        56   6726.9338      2.3253819      0.059552009    4.1239828      281.53826    
Loop time of 0.0032104 on 1 procs for 1 steps with 3 atoms

run 1 pre yes post no
PPPM initialization ...
  using 12-bit tables for long-range coulomb (src/kspace.cpp:342)
  G vector (1/distance) = 0.28934131
  grid = 18 18 18
  stencil order = 5
  estimated absolute RMS force accuracy = 7.7110449e-05
  estimated relative force accuracy = 5.3550243e-06
  using double precision KISS FFT
  3d grid and FFT values/proc = 15625 5832
Generated 0 of 21 mixed pair_coeff terms from geometric mixing rule
Per MPI rank memory allocation (min/avg/max) = 9.773 | 9.773 | 9.773 Mbytes
   Step          Temp          E_pair         E_mol          TotEng         Press     
        56   6726.9338      2.3253819      0.059552009    4.1239828      281.53826    
        57   6352.0061      2.349049       0.13365429     4.1248258      308.69448    
Loop time of 0.0064265 on 1 procs for 1 steps with 3 atoms

run 1 pre yes post no
PPPM initialization ...
  using 12-bit tables for long-range coulomb (src/kspace.cpp:342)
  G vector (1/distance) = 0.28934131
  grid = 18 18 18
  stencil order = 5
  estimated absolute RMS force accuracy = 7.7110449e-05
  estimated relative force accuracy = 5.3550243e-06
  using double precision KISS FFT
  3d grid and FFT values/proc = 15625 5832
Generated 0 of 21 mixed pair_coeff terms from geometric mixing rule
Per MPI rank memory allocation (min/avg/max) = 9.773 | 9.773 | 9.773 Mbytes
   Step          Temp          E_pair         E_mol          TotEng         Press     
        57   6352.0061      2.349049       0.13365429     4.1248258      308.69448    
        58   5935.3489      2.3680265      0.22328348     4.1257181      329.46044    
Loop time of 0.00511962 on 1 procs for 1 steps with 3 atoms

run 1 pre yes post no
PPPM initialization ...
  using 12-bit tables for long-range coulomb (src/kspace.cpp:342)
  G vector (1/distance) = 0.28934131
  grid = 18 18 18
  stencil order = 5
  estimated absolute RMS force accuracy = 7.7110449e-05
  estimated relative force accuracy = 5.3550243e-06
  using double precision KISS FFT
  3d grid and FFT values/proc = 15625 5832
Generated 0 of 21 mixed pair_coeff terms from geometric mixing rule
Per MPI rank memory allocation (min/avg/max) = 9.773 | 9.773 | 9.773 Mbytes
   Step          Temp          E_pair         E_mol          TotEng         Press     
        58   5935.3489      2.3680265      0.22328348     4.1257181      329.46044    
        59   5527.6049      2.3812435      0.31634409     4.1265856      344.71105    
Loop time of 0.00606376 on 1 procs for 1 steps with 3 atoms

run 1 pre yes post no
PPPM initialization ...
  using 12-bit tables for long-range coulomb (src/kspace.cpp:342)
  G vector (1/distance) = 0.28934131
  grid = 18 18 18
  stencil order = 5
  estimated absolute RMS force accuracy = 7.7110449e-05
  estimated relative force accuracy = 5.3550243e-06
  using double precision KISS FFT
  3d grid and FFT values/proc = 15625 5832
Generated 0 of 21 mixed pair_coeff terms from geometric mixing rule
Per MPI rank memory allocation (min/avg/max) = 9.773 | 9.773 | 9.773 Mbytes
   Step          Temp          E_pair         E_mol          TotEng         Press     
        59   5527.6049      2.3812435      0.31634409     4.1265856      344.71105    
        60   5178.0306      2.38773        0.4009955      4.1273515      355.38324    
Loop time of 0.0036297 on 1 procs for 1 steps with 3 atoms

run 1 pre yes post no
PPPM initialization ...
  using 12-bit tables for long-range coulomb (src/kspace.cpp:342)
  G vector (1/distance) = 0.28934131
  grid = 18 18 18
  stencil order = 5
  estimated absolute RMS force accuracy = 7.7110449e-05
  estimated relative force accuracy = 5.3550243e-06
  using double precision KISS FFT
  3d grid and FFT values/proc = 15625 5832
Generated 0 of 21 mixed pair_coeff terms from geometric mixing rule
Per MPI rank memory allocation (min/avg/max) = 9.773 | 9.773 | 9.773 Mbytes
   Step          Temp          E_pair         E_mol          TotEng         Press     
        60   5178.0306      2.38773        0.4009955      4.1273515      355.38324    
        61   4930.1224      2.3866407      0.46676994     4.1279474      362.34823    
Loop time of 0.00304394 on 1 procs for 1 steps with 3 atoms

run 1 pre yes post no
PPPM initialization ...
  using 12-bit tables for long-range coulomb (src/kspace.cpp:342)
  G vector (1/distance) = 0.28934131
  grid = 18 18 18
  stencil order = 5
  estimated absolute RMS force accuracy = 7.7110449e-05
  estimated relative force accuracy = 5.3550243e-06
  using double precision KISS FFT
  3d grid and FFT values/proc = 15625 5832
Generated 0 of 21 mixed pair_coeff terms from geometric mixing rule
Per MPI rank memory allocation (min/avg/max) = 9.773 | 9.773 | 9.773 Mbytes
   Step          Temp          E_pair         E_mol          TotEng         Press     
        61   4930.1224      2.3866407      0.46676994     4.1279474      362.34823    
        62   4817.6224      2.377265       0.50559609     4.1283143      366.29397    
Loop time of 0.00290596 on 1 procs for 1 steps with 3 atoms

run 1 pre yes post no
PPPM initialization ...
  using 12-bit tables for long-range coulomb (src/kspace.cpp:342)
  G vector (1/distance) = 0.28934131
  grid = 18 18 18
  stencil order = 5
  estimated absolute RMS force accuracy = 7.7110449e-05
  estimated relative force accuracy = 5.3550243e-06
  using double precision KISS FFT
  3d grid and FFT values/proc = 15625 5832
Generated 0 of 21 mixed pair_coeff terms from geometric mixing rule
Per MPI rank memory allocation (min/avg/max) = 9.773 | 9.773 | 9.773 Mbytes
   Step          Temp          E_pair         E_mol          TotEng         Press     
        62   4817.6224      2.377265       0.50559609     4.1283143      366.29397    
        63   4861.2969      2.3590483      0.51262385     4.128416       367.63145    
Loop time of 0.00343148 on 1 procs for 1 steps with 3 atoms

run 1 pre yes post no
PPPM initialization ...
  using 12-bit tables for long-range coulomb (src/kspace.cpp:342)
  G vector (1/distance) = 0.28934131
  grid = 18 18 18
  stencil order = 5
  estimated absolute RMS force accuracy = 7.7110449e-05
  estimated relative force accuracy = 5.3550243e-06
  using double precision KISS FFT
  3d grid and FFT values/proc = 15625 5832
Generated 0 of 21 mixed pair_coeff terms from geometric mixing rule
Per MPI rank memory allocation (min/avg/max) = 9.773 | 9.773 | 9.773 Mbytes
   Step          Temp          E_pair         E_mol          TotEng         Press     
        63   4861.2969      2.3590483      0.51262385     4.128416       367.63145    
        64   5066.8348      2.3316027      0.48675828     4.1282406      366.43428    
Loop time of 0.00265794 on 1 procs for 1 steps with 3 atoms

run 1 pre yes post no
PPPM initialization ...
  using 12-bit tables for long-range coulomb (src/kspace.cpp:342)
  G vector (1/distance) = 0.28934131
  grid = 18 18 18
  stencil order = 5
  estimated absolute RMS force accuracy = 7.7110449e-05
  estimated relative force accuracy = 5.3550243e-06
  using double precision KISS FFT
  3d grid and FFT values/proc = 15625 5832
Generated 0 of 21 mixed pair_coeff terms from geometric mixing rule
Per MPI rank memory allocation (min/avg/max) = 9.773 | 9.773 | 9.773 Mbytes
   Step          Temp          E_pair         E_mol          TotEng         Press     
        64   5066.8348      2.3316027      0.48675828     4.1282406      366.43428    
        65   5424.1072      2.2947189      0.43083763     4.1277983      362.41978    
Loop time of 0.00266157 on 1 procs for 1 steps with 3 atoms

run 1 pre yes post no
PPPM initialization ...
  using 12-bit tables for long-range coulomb (src/kspace.cpp:342)
  G vector (1/distance) = 0.28934131
  grid = 18 18 18
  stencil order = 5
  estimated absolute RMS force accuracy = 7.7110449e-05
  estimated relative force accuracy = 5.3550243e-06
  using double precision KISS FFT
  3d grid and FFT values/proc = 15625 5832
Generated 0 of 21 mixed pair_coeff terms from geometric mixing rule
Per MPI rank memory allocation (min/avg/max) = 9.773 | 9.773 | 9.773 Mbytes
   Step          Temp          E_pair         E_mol          TotEng         Press     
        65   5424.1072      2.2947189      0.43083763     4.1277983      362.41978    
        66   5907.8813      2.2483903      0.35143014     4.1271276      354.97449    
Loop time of 0.00262696 on 1 procs for 1 steps with 3 atoms

run 1 pre yes post no
PPPM initialization ...
  using 12-bit tables for long-range coulomb (src/kspace.cpp:342)
  G vector (1/distance) = 0.28934131
  grid = 18 18 18
  stencil order = 5
  estimated absolute RMS force accuracy = 7.7110449e-05
  estimated relative force accuracy = 5.3550243e-06
  using double precision KISS FFT
  3d grid and FFT values/proc = 15625 5832
Generated 0 of 21 mixed pair_coeff terms from geometric mixing rule
Per MPI rank memory allocation (min/avg/max) = 9.773 | 9.773 | 9.773 Mbytes
   Step          Temp          E_pair         E_mol          TotEng         Press     
        66   5907.8813      2.2483903      0.35143014     4.1271276      354.97449    
        67   6479.9104      2.1928275      0.25826923     4.1262851      343.2212     
Loop time of 0.00265795 on 1 procs for 1 steps with 3 atoms

run 1 pre yes post no
PPPM initialization ...
  using 12-bit tables for long-range coulomb (src/kspace.cpp:342)
  G vector (1/distance) = 0.28934131
  grid = 18 18 18
  stencil order = 5
  estimated absolute RMS force accuracy = 7.7110449e-05
  estimated relative force accuracy = 5.3550243e-06
  using double precision KISS FFT
  3d grid and FFT values/proc = 15625 5832
Generated 0 of 21 mixed pair_coeff terms from geometric mixing rule
Per MPI rank memory allocation (min/avg/max) = 9.773 | 9.773 | 9.773 Mbytes
   Step          Temp          E_pair         E_mol          TotEng         Press     
        67   6479.9104      2.1928275      0.25826923     4.1262851      343.2212     
        68   7092.1708      2.1284834      0.16338779     4.1253413      326.12104    
Loop time of 0.00265865 on 1 procs for 1 steps with 3 atoms

run 1 pre yes post no
PPPM initialization ...
  using 12-bit tables for long-range coulomb (src/kspace.cpp:342)
  G vector (1/distance) = 0.28934131
  grid = 18 18 18
  stencil order = 5
  estimated absolute RMS force accuracy = 7.7110449e-05
  estimated relative force accuracy = 5.3550243e-06
  using double precision KISS FFT
  3d grid and FFT values/proc = 15625 5832
Generated 0 of 21 mixed pair_coeff terms from geometric mixing rule
Per MPI rank memory allocation (min/avg/max) = 9.773 | 9.773 | 9.773 Mbytes
   Step          Temp          E_pair         E_mol          TotEng         Press     
        68   7092.1708      2.1284834      0.16338779     4.1253413      326.12104    
        69   7690.9024      2.0560761      0.08004179     4.1243722      302.5995     
Loop time of 0.00264775 on 1 procs for 1 steps with 3 atoms

run 1 pre yes post no
PPPM initialization ...
  using 12-bit tables for long-range coulomb (src/kspace.cpp:342)
  G vector (1/distance) = 0.28934131
  grid = 18 18 18
  stencil order = 5
  estimated absolute RMS force accuracy = 7.7110449e-05
  estimated relative force accuracy = 5.3550243e-06
  using double precision KISS FFT
  3d grid and FFT values/proc = 15625 5832
Generated 0 of 21 mixed pair_coeff terms from geometric mixing rule
Per MPI rank memory allocation (min/avg/max) = 9.773 | 9.773 | 9.773 Mbytes
   Step          Temp          E_pair         E_mol          TotEng         Press     
        69   7690.9024      2.0560761      0.08004179     4.1243722      302.5995     
        70   8221.0636      1.976617       0.021528222    4.123457       271.68414    
Loop time of 0.00283364 on 1 procs for 1 steps with 3 atoms

run 1 pre yes post no
PPPM initialization ...
  using 12-bit tables for long-range coulomb (src/kspace.cpp:342)
  G vector (1/distance) = 0.28934131
  grid = 18 18 18
  stencil order = 5
  estimated absolute RMS force accuracy = 7.7110449e-05
  estimated relative force accuracy = 5.3550243e-06
  using double precision KISS FFT
  3d grid and FFT values/proc = 15625 5832
Generated 0 of 21 mixed pair_coeff terms from geometric mixing rule
Per MPI rank memory allocation (min/avg/max) = 9.773 | 9.773 | 9.773 Mbytes
   Step          Temp          E_pair         E_mol          TotEng         Press     
        70   8221.0636      1.976617       0.021528222    4.123457       271.68414    
        71   8630.8144      1.8914215      2.7867195e-06  4.1226649      232.63994    
Loop time of 0.00262986 on 1 procs for 1 steps with 3 atoms

run 1 pre yes post no
PPPM initialization ...
  using 12-bit tables for long-range coulomb (src/kspace.cpp:342)
  G vector (1/distance) = 0.28934131
  grid = 18 18 18
  stencil order = 5
  estimated absolute RMS force accuracy = 7.7110449e-05
  estimated relative force accuracy = 5.3550243e-06
  using double precision KISS FFT
  3d grid and FFT values/proc = 15625 5832
Generated 0 of 21 mixed pair_coeff terms from geometric mixing rule
Per MPI rank memory allocation (min/avg/max) = 9.773 | 9.773 | 9.773 Mbytes
   Step          Temp          E_pair         E_mol          TotEng         Press     
        71   8630.8144      1.8914215      2.7867195e-06  4.1226649      232.63994    
        72   8875.6959      1.8021222      0.025392875    4.1220626      185.09096    
Loop time of 0.00266254 on 1 procs for 1 steps with 3 atoms

run 1 pre yes post no
PPPM initialization ...
  using 12-bit tables for long-range coulomb (src/kspace.cpp:342)
  G vector (1/distance) = 0.28934131
  grid = 18 18 18
  stencil order = 5
  estimated absolute RMS force accuracy = 7.7110449e-05
  estimated relative force accuracy = 5.3550243e-06
  using double precision KISS FFT
  3d grid and FFT values/proc = 15625 5832
Generated 0 of 21 mixed pair_coeff terms from geometric mixing rule
Per MPI rank memory allocation (min/avg/max) = 9.773 | 9.773 | 9.773 Mbytes
   Step          Temp          E_pair         E_mol          TotEng         Press     
        72   8875.6959      1.8021222      0.025392875    4.1220626      185.09096    
        73   8922.3235      1.7106441      0.10448587     4.1217316      129.11734    
Loop time of 0.00285119 on 1 procs for 1 steps with 3 atoms

run 1 pre yes post no
PPPM initialization ...
  using 12-bit tables for long-range coulomb (src/kspace.cpp:342)
  G vector (1/distance) = 0.28934131
  grid = 18 18 18
  stencil order = 5
  estimated absolute RMS force accuracy = 7.7110449e-05
  estimated relative force accuracy = 5.3550243e-06
  using double precision KISS FFT
  3d grid and FFT values/proc = 15625 5832
Generated 0 of 21 mixed pair_coeff terms from geometric mixing rule
Per MPI rank memory allocation (min/avg/max) = 9.773 | 9.773 | 9.773 Mbytes
   Step          Temp          E_pair         E_mol          TotEng         Press     
        73   8922.3235      1.7106441      0.10448587     4.1217316      129.11734    
        74   8751.8114      1.6191678      0.24025791     4.1219465      65.3259      
Loop time of 0.00254894 on 1 procs for 1 steps with 3 atoms

run 1 pre yes post no
PPPM initialization ...
  using 12-bit tables for long-range coulomb (src/kspace.cpp:342)
  G vector (1/distance) = 0.28934131
  grid = 18 18 18
  stencil order = 5
  estimated absolute RMS force accuracy = 7.7110449e-05
  estimated relative force accuracy = 5.3550243e-06
  using double precision KISS FFT
  3d grid and FFT values/proc = 15625 5832
Generated 0 of 21 mixed pair_coeff terms from geometric mixing rule
Per MPI rank memory allocation (min/avg/max) = 9.773 | 9.773 | 9.773 Mbytes
   Step          Temp          E_pair         E_mol          TotEng         Press     
        74   8751.8114      1.6191678      0.24025791     4.1219465      65.3259      
        75   8363.9437      1.530022       0.43151125     4.1237824     -5.0993686    
Loop time of 0.00257414 on 1 procs for 1 steps with 3 atoms

run 1 pre yes post no
PPPM initialization ...
  using 12-bit tables for long-range coulomb (src/kspace.cpp:342)
  G vector (1/distance) = 0.28934131
  grid = 18 18 18
  stencil order = 5
  estimated absolute RMS force accuracy = 7.7110449e-05
  estimated relative force accuracy = 5.3550243e-06
  using double precision KISS FFT
  3d grid and FFT values/proc = 15625 5832
Generated 0 of 21 mixed pair_coeff terms from geometric mixing rule
Per MPI rank memory allocation (min/avg/max) = 9.773 | 9.773 | 9.773 Mbytes
   Step          Temp          E_pair         E_mol          TotEng         Press     
        75   8363.9437      1.530022       0.43151125     4.1237824     -5.0993686    
        76   7782.9506      1.4454995      0.67295394     4.1305041     -80.371154    
Loop time of 0.00334653 on 1 procs for 1 steps with 3 atoms

run 1 pre yes post no
PPPM initialization ...
  using 12-bit tables for long-range coulomb (src/kspace.cpp:342)
  G vector (1/distance) = 0.28934131
  grid = 18 18 18
  stencil order = 5
  estimated absolute RMS force accuracy = 7.7110449e-05
  estimated relative force accuracy = 5.3550243e-06
  using double precision KISS FFT
  3d grid and FFT values/proc = 15625 5832
Generated 0 of 21 mixed pair_coeff terms from geometric mixing rule
Per MPI rank memory allocation (min/avg/max) = 9.773 | 9.773 | 9.773 Mbytes
   Step          Temp          E_pair         E_mol          TotEng         Press     
        76   7782.9506      1.4454995      0.67295394     4.1305041     -80.371154    
        77   7061.4767      1.3675513      0.95599233     4.1490786     -158.18536    
Loop time of 0.00278117 on 1 procs for 1 steps with 3 atoms

run 1 pre yes post no
PPPM initialization ...
  using 12-bit tables for long-range coulomb (src/kspace.cpp:342)
  G vector (1/distance) = 0.28934131
  grid = 18 18 18
  stencil order = 5
  estimated absolute RMS force accuracy = 7.7110449e-05
  estimated relative force accuracy = 5.3550243e-06
  using double precision KISS FFT
  3d grid and FFT values/proc = 15625 5832
Generated 0 of 21 mixed pair_coeff terms from geometric mixing rule
Per MPI rank memory allocation (min/avg/max) = 9.773 | 9.773 | 9.773 Mbytes
   Step          Temp          E_pair         E_mol          TotEng         Press     
        77   7061.4767      1.3675513      0.95599233     4.1490786     -158.18536    
        78   6273.6669      1.2973692      1.2704789      4.1897183     -236.07521    
Loop time of 0.00297718 on 1 procs for 1 steps with 3 atoms

run 1 pre yes post no
PPPM initialization ...
  using 12-bit tables for long-range coulomb (src/kspace.cpp:342)
  G vector (1/distance) = 0.28934131
  grid = 18 18 18
  stencil order = 5
  estimated absolute RMS force accuracy = 7.7110449e-05
  estimated relative force accuracy = 5.3550243e-06
  using double precision KISS FFT
  3d grid and FFT values/proc = 15625 5832
Generated 0 of 21 mixed pair_coeff terms from geometric mixing rule
Per MPI rank memory allocation (min/avg/max) = 9.773 | 9.773 | 9.773 Mbytes
   Step          Temp          E_pair         E_mol          TotEng         Press     
        78   6273.6669      1.2973692      1.2704789      4.1897183     -236.07521    
        79   5493.9169      1.2350442      1.6070892      4.2624225     -312.00125    
Loop time of 0.00343946 on 1 procs for 1 steps with 3 atoms

run 1 pre yes post no
PPPM initialization ...
  using 12-bit tables for long-range coulomb (src/kspace.cpp:342)
  G vector (1/distance) = 0.28934131
  grid = 18 18 18
  stencil order = 5
  estimated absolute RMS force accuracy = 7.7110449e-05
  estimated relative force accuracy = 5.3550243e-06
  using double precision KISS FFT
  3d grid and FFT values/proc = 15625 5832
Generated 0 of 21 mixed pair_coeff terms from geometric mixing rule
Per MPI rank memory allocation (min/avg/max) = 9.773 | 9.773 | 9.773 Mbytes
   Step          Temp          E_pair         E_mol          TotEng         Press     
        79   5493.9169      1.2350442      1.6070892      4.2624225     -312.00125    
        80   4774.5779      1.1795705      1.9592266      4.3731224     -384.80269    
Loop time of 0.00271045 on 1 procs for 1 steps with 3 atoms

run 1 pre yes post no
PPPM initialization ...
  using 12-bit tables for long-range coulomb (src/kspace.cpp:342)
  G vector (1/distance) = 0.28934131
  grid = 18 18 18
  stencil order = 5
  estimated absolute RMS force accuracy = 7.7110449e-05
  estimated relative force accuracy = 5.3550243e-06
  using double precision KISS FFT
  3d grid and FFT values/proc = 15625 5832
Generated 0 of 21 mixed pair_coeff terms from geometric mixing rule
Per MPI rank memory allocation (min/avg/max) = 9.773 | 9.773 | 9.773 Mbytes
   Step          Temp          E_pair         E_mol          TotEng         Press     
        80   4774.5779      1.1795705      1.9592266      4.3731224     -384.80269    
        81   4140.2898      1.1292267      2.3234469      4.5230226     -454.15245    
Loop time of 0.00283152 on 1 procs for 1 steps with 3 atoms

run 1 pre yes post no
PPPM initialization ...
  using 12-bit tables for long-range coulomb (src/kspace.cpp:342)
  G vector (1/distance) = 0.28934131
  grid = 18 18 18
  stencil order = 5
  estimated absolute RMS force accuracy = 7.7110449e-05
  estimated relative force accuracy = 5.3550243e-06
  using double precision KISS FFT
  3d grid and FFT values/proc = 15625 5832
Generated 0 of 21 mixed pair_coeff terms from geometric mixing rule
Per MPI rank memory allocation (min/avg/max) = 9.773 | 9.773 | 9.773 Mbytes
   Step          Temp          E_pair         E_mol          TotEng         Press     
        81   4140.2898      1.1292267      2.3234469      4.5230226     -454.15245    
        82   3600.8416      1.0821075      2.6986199      4.711618      -520.10036    
Loop time of 0.00268123 on 1 procs for 1 steps with 3 atoms

run 1 pre yes post no
PPPM initialization ...
  using 12-bit tables for long-range coulomb (src/kspace.cpp:342)
  G vector (1/distance) = 0.28934131
  grid = 18 18 18
  stencil order = 5
  estimated absolute RMS force accuracy = 7.7110449e-05
  estimated relative force accuracy = 5.3550243e-06
  using double precision KISS FFT
  3d grid and FFT values/proc = 15625 5832
Generated 0 of 21 mixed pair_coeff terms from geometric mixing rule
Per MPI rank memory allocation (min/avg/max) = 9.773 | 9.773 | 9.773 Mbytes
   Step          Temp          E_pair         E_mol          TotEng         Press     
        82   3600.8416      1.0821075      2.6986199      4.711618      -520.10036    
        83   3169.6281      1.0364765      3.0851875      4.9410772     -582.62027    
Loop time of 0.00275896 on 1 procs for 1 steps with 3 atoms

run 0 pre yes post no
PPPM initialization ...
  using 12-bit tables for long-range coulomb (src/kspace.cpp:342)
  G vector (1/distance) = 0.28934131
  grid = 18 18 18
  stencil order = 5
  estimated absolute RMS force accuracy = 7.7110449e-05
  estimated relative force accuracy = 5.3550243e-06
  using double precision KISS FFT
  3d grid and FFT values/proc = 15625 5832
Generated 0 of 21 mixed pair_coeff terms from geometric mixing rule
Per MPI rank memory allocation (min/avg/max) = 9.773 | 9.773 | 9.773 Mbytes
   Step          Temp          E_pair         E_mol          TotEng         Press     
        83   3169.6281      1.0364765      3.0851875      4.9410772     -582.62027    
Loop time of 9.32e-07 on 1 procs for 0 steps with 3 atoms

run 0 pre yes post no
PPPM initialization ...
  using 12-bit tables for long-range coulomb (src/kspace.cpp:342)
  G vector (1/distance) = 0.28934131
  grid = 18 18 18
  stencil order = 5
  estimated absolute RMS force accuracy = 7.7110449e-05
  estimated relative force accuracy = 5.3550243e-06
  using double precision KISS FFT
  3d grid and FFT values/proc = 15625 5832
Generated 0 of 21 mixed pair_coeff terms from geometric mixing rule
Per MPI rank memory allocation (min/avg/max) = 9.773 | 9.773 | 9.773 Mbytes
   Step          Temp          E_pair         E_mol          TotEng         Press     
        83   3169.6281      1.0364765      3.0851875      4.9410772     -582.62027    
Loop time of 4.2e-07 on 1 procs for 0 steps with 3 atoms

clear
OMP_NUM_THREADS environment is not set. Defaulting to 1 thread. (src/comm.cpp:98)
  using 1 OpenMP thread(s) per MPI task
units metal
atom_style full
boundary p p p
read_data /tmp/mustard.1db41283f1a74d1b97c38b9120794fbd
Reading data file ...
  triclinic box = (0 0 0) to (25.319 25.319 25.319) with tilt (0 0 0)
  1 by 1 by 1 MPI processor grid
  reading atoms ...
  3 atoms
  reading velocities ...
  3 velocities
  scanning bonds ...
  1 = max bonds/atom
  reading bonds ...
  1 bonds
Finding 1-2 1-3 1-4 neighbors ...
  special bond factors lj:    0        0        0       
  special bond factors coul:  0        0        0       
     1 = max # of 1-2 neighbors
     0 = max # of 1-3 neighbors
     0 = max # of 1-4 neighbors
     1 = max # of special neighbors
  special bonds CPU = 0.000 seconds
  read_data CPU = 0.001 seconds

change_box all triclinic
Changing box ...
  triclinic box = (0 0 0) to (25.319 25.319 25.319) with tilt (0 0 0)
include ff.lmp
##############################################################################################
#### Atoms' types - mass - charge
##############################################################################################
#@ 7   atom types

variable Ba  equal 1
variable Zr  equal 2
variable  Y  equal 3
variable O1  equal 4
variable O2  equal 5
variable O3  equal 6
variable H1  equal 7

##############################################################################################
#### Atoms' masses
##############################################################################################

mass  ${Ba}   137.327
mass  1   137.327
mass  ${Zr}    91.224
mass  2    91.224
mass  ${Y}     88.910
mass  3     88.910
mass  ${O1}    100000
mass  4    100000
# mass  ${O1}    15.996
mass  ${O2}    100000
mass  5    100000
# mass  ${O2}    15.996
mass  ${O3}    15.996
mass  6    15.996
mass  ${H1}     1.008
mass  7     1.008

##############################################################################################
#### Atoms' charges
##############################################################################################

set type ${Ba}  charge     2.000000
set type 1  charge     2.000000
Setting atom values ...
  0 settings made for charge
set type ${Zr}  charge     4.000000
set type 2  charge     4.000000
Setting atom values ...
  0 settings made for charge
set type ${Y}   charge     3.000000
set type 3   charge     3.000000
Setting atom values ...
  0 settings made for charge
set type ${O1}  charge    -1.308698
set type 4  charge    -1.308698
Setting atom values ...
  1 settings made for charge
set type ${O2}  charge    -2.000000
set type 5  charge    -2.000000
Setting atom values ...
  1 settings made for charge
set type ${O3}  charge    -2.000000
set type 6  charge    -2.000000
Setting atom values ...
  0 settings made for charge
set type ${H1}  charge     0.308698
set type 7  charge     0.308698
Setting atom values ...
  1 settings made for charge

##############################################################################################
#### Covalent bonds parameters
##############################################################################################
#@  1   bond types

bond_style harmonic
#@ O1 - H1
# bond_coeff   1      11.504000      0.985357
bond_coeff   1      23.008000      0.985357

##############################################################################################
# Pair potentials
##############################################################################################

variable rmin  equal  8.
variable rmax  equal 10.

pair_style hybrid/overlay buck/mdf ${rmin} ${rmax} lennard/mdf ${rmin} ${rmax} coul/long ${rmax}
pair_style hybrid/overlay buck/mdf 8 ${rmax} lennard/mdf ${rmin} ${rmax} coul/long ${rmax}
pair_style hybrid/overlay buck/mdf 8 10 lennard/mdf ${rmin} ${rmax} coul/long ${rmax}
pair_style hybrid/overlay buck/mdf 8 10 lennard/mdf 8 ${rmax} coul/long ${rmax}
pair_style hybrid/overlay buck/mdf 8 10 lennard/mdf 8 10 coul/long ${rmax}
pair_style hybrid/overlay buck/mdf 8 10 lennard/mdf 8 10 coul/long 10

##############################################################################################
# Buckingham interaction potentials
pair_coeff  ${Ba}  ${O1}  buck/mdf   688.21662   0.392014   0.000
pair_coeff  1  ${O1}  buck/mdf   688.21662   0.392014   0.000
pair_coeff  1  4  buck/mdf   688.21662   0.392014   0.000
pair_coeff  ${Ba}  ${O2}  buck/mdf   972.19945   0.392014   0.000
pair_coeff  1  ${O2}  buck/mdf   972.19945   0.392014   0.000
pair_coeff  1  5  buck/mdf   972.19945   0.392014   0.000
pair_coeff  ${Ba}  ${O3}  buck/mdf   972.19945   0.392014   0.000
pair_coeff  1  ${O3}  buck/mdf   972.19945   0.392014   0.000
pair_coeff  1  6  buck/mdf   972.19945   0.392014   0.000

pair_coeff  ${Y}   ${O1}  buck/mdf   2972.3808   0.267317   0.000
pair_coeff  3   ${O1}  buck/mdf   2972.3808   0.267317   0.000
pair_coeff  3   4  buck/mdf   2972.3808   0.267317   0.000
pair_coeff  ${Y}   ${O2}  buck/mdf   4121.8373   0.280386   0.000
pair_coeff  3   ${O2}  buck/mdf   4121.8373   0.280386   0.000
pair_coeff  3   5  buck/mdf   4121.8373   0.280386   0.000
pair_coeff  ${Y}   ${O3}  buck/mdf   4121.8373   0.280386   0.000
pair_coeff  3   ${O3}  buck/mdf   4121.8373   0.280386   0.000
pair_coeff  3   6  buck/mdf   4121.8373   0.280386   0.000

pair_coeff  ${Zr}  ${O1}  buck/mdf   2195.8712   0.298760   0.000
pair_coeff  2  ${O1}  buck/mdf   2195.8712   0.298760   0.000
pair_coeff  2  4  buck/mdf   2195.8712   0.298760   0.000
pair_coeff  ${Zr}  ${O2}  buck/mdf   3250.8545   0.298760   0.000
pair_coeff  2  ${O2}  buck/mdf   3250.8545   0.298760   0.000
pair_coeff  2  5  buck/mdf   3250.8545   0.298760   0.000
pair_coeff  ${Zr}  ${O3}  buck/mdf   3250.8545   0.298760   0.000
pair_coeff  2  ${O3}  buck/mdf   3250.8545   0.298760   0.000
pair_coeff  2  6  buck/mdf   3250.8545   0.298760   0.000

pair_coeff  ${O1}  ${O1}  buck/mdf   22764.000   0.149000   0.000
pair_coeff  4  ${O1}  buck/mdf   22764.000   0.149000   0.000
pair_coeff  4  4  buck/mdf   22764.000   0.149000   0.000
pair_coeff  ${O1}  ${O2}  buck/mdf   22764.000   0.149000   0.000
pair_coeff  4  ${O2}  buck/mdf   22764.000   0.149000   0.000
pair_coeff  4  5  buck/mdf   22764.000   0.149000   0.000
pair_coeff  ${O1}  ${O3}  buck/mdf   22764.000   0.149000   0.000
pair_coeff  4  ${O3}  buck/mdf   22764.000   0.149000   0.000
pair_coeff  4  6  buck/mdf   22764.000   0.149000   0.000

pair_coeff  ${O2}  ${O2}  buck/mdf   22764.000   0.149000   0.000
pair_coeff  5  ${O2}  buck/mdf   22764.000   0.149000   0.000
pair_coeff  5  5  buck/mdf   22764.000   0.149000   0.000
pair_coeff  ${O2}  ${O3}  buck/mdf   22764.000   0.149000   0.000
pair_coeff  5  ${O3}  buck/mdf   22764.000   0.149000   0.000
pair_coeff  5  6  buck/mdf   22764.000   0.149000   0.000

pair_coeff  ${O3}  ${O3}  buck/mdf   22764.000   0.149000   0.000
pair_coeff  6  ${O3}  buck/mdf   22764.000   0.149000   0.000
pair_coeff  6  6  buck/mdf   22764.000   0.149000   0.000

##############################################################################################
# 12-6 Lennard-Jones potentials
pair_coeff  ${O1}  ${H1}  lennard/mdf    6.391   0.000
pair_coeff  4  ${H1}  lennard/mdf    6.391   0.000
pair_coeff  4  7  lennard/mdf    6.391   0.000
pair_coeff  ${O2}  ${H1}  lennard/mdf    6.391   0.000
pair_coeff  5  ${H1}  lennard/mdf    6.391   0.000
pair_coeff  5  7  lennard/mdf    6.391   0.000
pair_coeff  ${O3}  ${H1}  lennard/mdf    7.800   0.000
pair_coeff  6  ${H1}  lennard/mdf    7.800   0.000
pair_coeff  6  7  lennard/mdf    7.800   0.000

##############################################################################################
# Coulombic interaction
pair_coeff      *      *  coul/long

#########################################################################################################
# Parameters for reciprocal space electrostatics
#########################################################################################################

kspace_style pppm 1.0e-5
kspace_modify fftbench no
fix md all nve
timestep 0.0002

change_box all x final 0.0 25.319 y final 0.0 25.319 z final 0.0 25.319 xy final 0.0 xz final 0.0 yz final 0.0
Changing box ...
  triclinic box = (0 0 0) to (25.319 25.319 25.319) with tilt (0 0 0)
  triclinic box = (0 0 0) to (25.319 25.319 25.319) with tilt (0 0 0)
  triclinic box = (0 0 0) to (25.319 25.319 25.319) with tilt (0 0 0)
  triclinic box = (0 0 0) to (25.319 25.319 25.319) with tilt (0 0 0)
  triclinic box = (0 0 0) to (25.319 25.319 25.319) with tilt (0 0 0)
  triclinic box = (0 0 0) to (25.319 25.319 25.319) with tilt (0 0 0)
fix ux all store/state 1 xu yu zu
fix ext all external pf/callback 1 1
fix_modify ext energy no
fix_modify ext virial no
compute get_pe all pe

run 0 pre yes post no
PPPM initialization ...
WARNING: System is not charge neutral, net charge = -3 (src/kspace.cpp:327)
  using 12-bit tables for long-range coulomb (src/kspace.cpp:342)
  G vector (1/distance) = 0.28934131
  grid = 18 18 18
  stencil order = 5
  estimated absolute RMS force accuracy = 7.7110449e-05
  estimated relative force accuracy = 5.3550243e-06
  using double precision KISS FFT
  3d grid and FFT values/proc = 15625 5832
Generated 0 of 21 mixed pair_coeff terms from geometric mixing rule
Neighbor list info ...
  update: every = 1 steps, delay = 0 steps, check = yes
  max neighbors/atom: 2000, page size: 100000
  master list distance cutoff = 12
  ghost atom cutoff = 12
  binsize = 6, bins = 5 5 5
  3 neighbor lists, perpetual/occasional/extra = 3 0 0
  (1) pair buck/mdf, perpetual, skip from (3)
      attributes: half, newton on
      pair build: skip
      stencil: none
      bin: none
  (2) pair lennard/mdf, perpetual, skip from (3)
      attributes: half, newton on
      pair build: skip
      stencil: none
      bin: none
  (3) pair coul/long, perpetual
      attributes: half, newton on
      pair build: half/bin/newton/tri
      stencil: half/bin/3d/tri
      bin: standard
Per MPI rank memory allocation (min/avg/max) = 9.773 | 9.773 | 9.773 Mbytes
   Step          Temp          E_pair         E_mol          TotEng         Press     
         0   3362.6774      1.0426319      3.0540834      4.9660356     -575.35547    
Loop time of 1.202e-06 on 1 procs for 0 steps with 3 atoms

run 0 pre yes post no
PPPM initialization ...
  using 12-bit tables for long-range coulomb (src/kspace.cpp:342)
  G vector (1/distance) = 0.28934131
  grid = 18 18 18
  stencil order = 5
  estimated absolute RMS force accuracy = 7.7110449e-05
  estimated relative force accuracy = 5.3550243e-06
  using double precision KISS FFT
  3d grid and FFT values/proc = 15625 5832
Generated 0 of 21 mixed pair_coeff terms from geometric mixing rule
Per MPI rank memory allocation (min/avg/max) = 9.773 | 9.773 | 9.773 Mbytes
   Step          Temp          E_pair         E_mol          TotEng         Press     
         0   3362.6774      1.0426319      3.0540834      4.9660356     -575.35547    
Loop time of 7.32e-07 on 1 procs for 0 steps with 3 atoms

run 1 pre yes post no
PPPM initialization ...
  using 12-bit tables for long-range coulomb (src/kspace.cpp:342)
  G vector (1/distance) = 0.28934131
  grid = 18 18 18
  stencil order = 5
  estimated absolute RMS force accuracy = 7.7110449e-05
  estimated relative force accuracy = 5.3550243e-06
  using double precision KISS FFT
  3d grid and FFT values/proc = 15625 5832
Generated 0 of 21 mixed pair_coeff terms from geometric mixing rule
Per MPI rank memory allocation (min/avg/max) = 9.773 | 9.773 | 9.773 Mbytes
   Step          Temp          E_pair         E_mol          TotEng         Press     
         0   3169.6281      1.0426319      3.0540834      4.9161284     -578.63977    
         1   2873.9522      1.1212054      2.8246285      4.6888089     -556.59938    
Loop time of 0.00405606 on 1 procs for 1 steps with 3 atoms

run 1 pre yes post no
PPPM initialization ...
  using 12-bit tables for long-range coulomb (src/kspace.cpp:342)
  G vector (1/distance) = 0.28934131
  grid = 18 18 18
  stencil order = 5
  estimated absolute RMS force accuracy = 7.7110449e-05
  estimated relative force accuracy = 5.3550243e-06
  using double precision KISS FFT
  3d grid and FFT values/proc = 15625 5832
Generated 0 of 21 mixed pair_coeff terms from geometric mixing rule
Per MPI rank memory allocation (min/avg/max) = 9.773 | 9.773 | 9.773 Mbytes
   Step          Temp          E_pair         E_mol          TotEng         Press     
         1   2873.9522      1.1212054      2.8246285      4.6888089     -556.59938    
         2   2751.4205      1.2014856      2.5878611      4.5006447     -527.18114    
Loop time of 0.00289883 on 1 procs for 1 steps with 3 atoms

run 1 pre yes post no
PPPM initialization ...
  using 12-bit tables for long-range coulomb (src/kspace.cpp:342)
  G vector (1/distance) = 0.28934131
  grid = 18 18 18
  stencil order = 5
  estimated absolute RMS force accuracy = 7.7110449e-05
  estimated relative force accuracy = 5.3550243e-06
  using double precision KISS FFT
  3d grid and FFT values/proc = 15625 5832
Generated 0 of 21 mixed pair_coeff terms from geometric mixing rule
Per MPI rank memory allocation (min/avg/max) = 9.773 | 9.773 | 9.773 Mbytes
   Step          Temp          E_pair         E_mol          TotEng         Press     
         2   2751.4205      1.2014856      2.5878611      4.5006447     -527.18114    
         3   2836.2625      1.2843214      2.3363234      4.3538762     -488.97815    
Loop time of 0.00259982 on 1 procs for 1 steps with 3 atoms

run 1 pre yes post no
PPPM initialization ...
  using 12-bit tables for long-range coulomb (src/kspace.cpp:342)
  G vector (1/distance) = 0.28934131
  grid = 18 18 18
  stencil order = 5
  estimated absolute RMS force accuracy = 7.7110449e-05
  estimated relative force accuracy = 5.3550243e-06
  using double precision KISS FFT
  3d grid and FFT values/proc = 15625 5832
Generated 0 of 21 mixed pair_coeff terms from geometric mixing rule
Per MPI rank memory allocation (min/avg/max) = 9.773 | 9.773 | 9.773 Mbytes
   Step          Temp          E_pair         E_mol          TotEng         Press     
         3   2836.2625      1.2843214      2.3363234      4.3538762     -488.97815    
         4   3143.3609      1.3710622      2.0652613      4.248946      -440.87983    
Loop time of 0.00297811 on 1 procs for 1 steps with 3 atoms

run 1 pre yes post no
PPPM initialization ...
  using 12-bit tables for long-range coulomb (src/kspace.cpp:342)
  G vector (1/distance) = 0.28934131
  grid = 18 18 18
  stencil order = 5
  estimated absolute RMS force accuracy = 7.7110449e-05
  estimated relative force accuracy = 5.3550243e-06
  using double precision KISS FFT
  3d grid and FFT values/proc = 15625 5832
Generated 0 of 21 mixed pair_coeff terms from geometric mixing rule
Per MPI rank memory allocation (min/avg/max) = 9.773 | 9.773 | 9.773 Mbytes
   Step          Temp          E_pair         E_mol          TotEng         Press     
         4   3143.3609      1.3710622      2.0652613      4.248946      -440.87983    
         5   3655.3987      1.4628468      1.7746376      4.1824792     -382.6775     
Loop time of 0.00246234 on 1 procs for 1 steps with 3 atoms

run 1 pre yes post no
PPPM initialization ...
  using 12-bit tables for long-range coulomb (src/kspace.cpp:342)
  G vector (1/distance) = 0.28934131
  grid = 18 18 18
  stencil order = 5
  estimated absolute RMS force accuracy = 7.7110449e-05
  estimated relative force accuracy = 5.3550243e-06
  using double precision KISS FFT
  3d grid and FFT values/proc = 15625 5832
Generated 0 of 21 mixed pair_coeff terms from geometric mixing rule
Per MPI rank memory allocation (min/avg/max) = 9.773 | 9.773 | 9.773 Mbytes
   Step          Temp          E_pair         E_mol          TotEng         Press     
         5   3655.3987      1.4628468      1.7746376      4.1824792     -382.6775     
         6   4318.1993      1.5600871      1.4701874      4.1466166     -315.43591    
Loop time of 0.00245071 on 1 procs for 1 steps with 3 atoms

run 1 pre yes post no
PPPM initialization ...
  using 12-bit tables for long-range coulomb (src/kspace.cpp:342)
  G vector (1/distance) = 0.28934131
  grid = 18 18 18
  stencil order = 5
  estimated absolute RMS force accuracy = 7.7110449e-05
  estimated relative force accuracy = 5.3550243e-06
  using double precision KISS FFT
  3d grid and FFT values/proc = 15625 5832
Generated 0 of 21 mixed pair_coeff terms from geometric mixing rule
Per MPI rank memory allocation (min/avg/max) = 9.773 | 9.773 | 9.773 Mbytes
   Step          Temp          E_pair         E_mol          TotEng         Press     
         6   4318.1993      1.5600871      1.4701874      4.1466166     -315.43591    
         7   5050.1453      1.6622778      1.1628543      4.1306971     -241.41429    
Loop time of 0.00244903 on 1 procs for 1 steps with 3 atoms

run 1 pre yes post no
PPPM initialization ...
  using 12-bit tables for long-range coulomb (src/kspace.cpp:342)
  G vector (1/distance) = 0.28934131
  grid = 18 18 18
  stencil order = 5
  estimated absolute RMS force accuracy = 7.7110449e-05
  estimated relative force accuracy = 5.3550243e-06
  using double precision KISS FFT
  3d grid and FFT values/proc = 15625 5832
Generated 0 of 21 mixed pair_coeff terms from geometric mixing rule
Per MPI rank memory allocation (min/avg/max) = 9.773 | 9.773 | 9.773 Mbytes
   Step          Temp          E_pair         E_mol          TotEng         Press     
         7   5050.1453      1.6622778      1.1628543      4.1306971     -241.41429    
         8   5763.2719      1.7681573      0.86681116     4.1248912     -163.56321    
Loop time of 0.00244945 on 1 procs for 1 steps with 3 atoms

run 1 pre yes post no
PPPM initialization ...
  using 12-bit tables for long-range coulomb (src/kspace.cpp:342)
  G vector (1/distance) = 0.28934131
  grid = 18 18 18
  stencil order = 5
  estimated absolute RMS force accuracy = 7.7110449e-05
  estimated relative force accuracy = 5.3550243e-06
  using double precision KISS FFT
  3d grid and FFT values/proc = 15625 5832
Generated 0 of 21 mixed pair_coeff terms from geometric mixing rule
Per MPI rank memory allocation (min/avg/max) = 9.773 | 9.773 | 9.773 Mbytes
   Step          Temp          E_pair         E_mol          TotEng         Press     
         8   5763.2719      1.7681573      0.86681116     4.1248912     -163.56321    
         9   6382.1832      1.8760584      0.59697022     4.1229525     -84.932494    
Loop time of 0.00340263 on 1 procs for 1 steps with 3 atoms

run 1 pre yes post no
PPPM initialization ...
  using 12-bit tables for long-range coulomb (src/kspace.cpp:342)
  G vector (1/distance) = 0.28934131
  grid = 18 18 18
  stencil order = 5
  estimated absolute RMS force accuracy = 7.7110449e-05
  estimated relative force accuracy = 5.3550243e-06
  using double precision KISS FFT
  3d grid and FFT values/proc = 15625 5832
Generated 0 of 21 mixed pair_coeff terms from geometric mixing rule
Per MPI rank memory allocation (min/avg/max) = 9.773 | 9.773 | 9.773 Mbytes
   Step          Temp          E_pair         E_mol          TotEng         Press     
         9   6382.1832      1.8760584      0.59697022     4.1229525     -84.932494    
        10   6850.6886      1.9842179      0.36691478     4.1221747     -8.3046943    
Loop time of 0.00255126 on 1 procs for 1 steps with 3 atoms

run 1 pre yes post no
PPPM initialization ...
  using 12-bit tables for long-range coulomb (src/kspace.cpp:342)
  G vector (1/distance) = 0.28934131
  grid = 18 18 18
  stencil order = 5
  estimated absolute RMS force accuracy = 7.7110449e-05
  estimated relative force accuracy = 5.3550243e-06
  using double precision KISS FFT
  3d grid and FFT values/proc = 15625 5832
Generated 0 of 21 mixed pair_coeff terms from geometric mixing rule
Per MPI rank memory allocation (min/avg/max) = 9.773 | 9.773 | 9.773 Mbytes
   Step          Temp          E_pair         E_mol          TotEng         Press     
        10   6850.6886      1.9842179      0.36691478     4.1221747     -8.3046943    
        11   7130.0649      2.0909657      0.18755487     4.1217871      63.943165    
Loop time of 0.00250022 on 1 procs for 1 steps with 3 atoms

run 1 pre yes post no
PPPM initialization ...
  using 12-bit tables for long-range coulomb (src/kspace.cpp:342)
  G vector (1/distance) = 0.28934131
  grid = 18 18 18
  stencil order = 5
  estimated absolute RMS force accuracy = 7.7110449e-05
  estimated relative force accuracy = 5.3550243e-06
  using double precision KISS FFT
  3d grid and FFT values/proc = 15625 5832
Generated 0 of 21 mixed pair_coeff terms from geometric mixing rule
Per MPI rank memory allocation (min/avg/max) = 9.773 | 9.773 | 9.773 Mbytes
   Step          Temp          E_pair         E_mol          TotEng         Press     
        11   7130.0649      2.0909657      0.18755487     4.1217871      63.943165    
        12   7196.8796      2.1947915      0.06632518     4.1216561      129.89706    
Loop time of 0.00269003 on 1 procs for 1 steps with 3 atoms

run 1 pre yes post no
PPPM initialization ...
  using 12-bit tables for long-range coulomb (src/kspace.cpp:342)
  G vector (1/distance) = 0.28934131
  grid = 18 18 18
  stencil order = 5
  estimated absolute RMS force accuracy = 7.7110449e-05
  estimated relative force accuracy = 5.3550243e-06
  using double precision KISS FFT
  3d grid and FFT values/proc = 15625 5832
Generated 0 of 21 mixed pair_coeff terms from geometric mixing rule
Per MPI rank memory allocation (min/avg/max) = 9.773 | 9.773 | 9.773 Mbytes
   Step          Temp          E_pair         E_mol          TotEng         Press     
        12   7196.8796      2.1947915      0.06632518     4.1216561      129.89706    
        13   7042.6594      2.294368       0.0067317252   4.1217701      188.15453    
Loop time of 0.00272887 on 1 procs for 1 steps with 3 atoms

run 1 pre yes post no
PPPM initialization ...
  using 12-bit tables for long-range coulomb (src/kspace.cpp:342)
  G vector (1/distance) = 0.28934131
  grid = 18 18 18
  stencil order = 5
  estimated absolute RMS force accuracy = 7.7110449e-05
  estimated relative force accuracy = 5.3550243e-06
  using double precision KISS FFT
  3d grid and FFT values/proc = 15625 5832
Generated 0 of 21 mixed pair_coeff terms from geometric mixing rule
Per MPI rank memory allocation (min/avg/max) = 9.773 | 9.773 | 9.773 Mbytes
   Step          Temp          E_pair         E_mol          TotEng         Press     
        13   7042.6594      2.294368       0.0067317252   4.1217701      188.15453    
        14   6674.0594      2.3885591      0.0081827868   4.1221217      237.85675    
Loop time of 0.00298205 on 1 procs for 1 steps with 3 atoms

run 1 pre yes post no
PPPM initialization ...
  using 12-bit tables for long-range coulomb (src/kspace.cpp:342)
  G vector (1/distance) = 0.28934131
  grid = 18 18 18
  stencil order = 5
  estimated absolute RMS force accuracy = 7.7110449e-05
  estimated relative force accuracy = 5.3550243e-06
  using double precision KISS FFT
  3d grid and FFT values/proc = 15625 5832
Generated 0 of 21 mixed pair_coeff terms from geometric mixing rule
Per MPI rank memory allocation (min/avg/max) = 9.773 | 9.773 | 9.773 Mbytes
   Step          Temp          E_pair         E_mol          TotEng         Press     
        14   6674.0594      2.3885591      0.0081827868   4.1221217      237.85675    
        15   6112.4035      2.4764126      0.066096672    4.1226896      278.68902    
Loop time of 0.00283248 on 1 procs for 1 steps with 3 atoms

run 1 pre yes post no
PPPM initialization ...
  using 12-bit tables for long-range coulomb (src/kspace.cpp:342)
  G vector (1/distance) = 0.28934131
  grid = 18 18 18
  stencil order = 5
  estimated absolute RMS force accuracy = 7.7110449e-05
  estimated relative force accuracy = 5.3550243e-06
  using double precision KISS FFT
  3d grid and FFT values/proc = 15625 5832
Generated 0 of 21 mixed pair_coeff terms from geometric mixing rule
Per MPI rank memory allocation (min/avg/max) = 9.773 | 9.773 | 9.773 Mbytes
   Step          Temp          E_pair         E_mol          TotEng         Press     
        15   6112.4035      2.4764126      0.066096672    4.1226896      278.68902    
        16   5392.2766      2.5571438      0.17227705     4.1234338      310.8459     
Loop time of 0.00267391 on 1 procs for 1 steps with 3 atoms

run 1 pre yes post no
PPPM initialization ...
  using 12-bit tables for long-range coulomb (src/kspace.cpp:342)
  G vector (1/distance) = 0.28934131
  grid = 18 18 18
  stencil order = 5
  estimated absolute RMS force accuracy = 7.7110449e-05
  estimated relative force accuracy = 5.3550243e-06
  using double precision KISS FFT
  3d grid and FFT values/proc = 15625 5832
Generated 0 of 21 mixed pair_coeff terms from geometric mixing rule
Per MPI rank memory allocation (min/avg/max) = 9.773 | 9.773 | 9.773 Mbytes
   Step          Temp          E_pair         E_mol          TotEng         Press     
        16   5392.2766      2.5571438      0.17227705     4.1234338      310.8459     
        17   4559.2052      2.6301284      0.31553053     4.124306       334.96441    
Loop time of 0.00110784 on 1 procs for 1 steps with 3 atoms

run 1 pre yes post no
PPPM initialization ...
  using 12-bit tables for long-range coulomb (src/kspace.cpp:342)
  G vector (1/distance) = 0.28934131
  grid = 18 18 18
  stencil order = 5
  estimated absolute RMS force accuracy = 7.7110449e-05
  estimated relative force accuracy = 5.3550243e-06
  using double precision KISS FFT
  3d grid and FFT values/proc = 15625 5832
Generated 0 of 21 mixed pair_coeff terms from geometric mixing rule
Per MPI rank memory allocation (min/avg/max) = 9.773 | 9.773 | 9.773 Mbytes
   Step          Temp          E_pair         E_mol          TotEng         Press     
        17   4559.2052      2.6301284      0.31553053     4.124306       334.96441    
        18   3666.574       2.6948782      0.48248428     4.1252463      352.02973    
Loop time of 0.00118276 on 1 procs for 1 steps with 3 atoms

run 1 pre yes post no
PPPM initialization ...
  using 12-bit tables for long-range coulomb (src/kspace.cpp:342)
  G vector (1/distance) = 0.28934131
  grid = 18 18 18
  stencil order = 5
  estimated absolute RMS force accuracy = 7.7110449e-05
  estimated relative force accuracy = 5.3550243e-06
  using double precision KISS FFT
  3d grid and FFT values/proc = 15625 5832
Generated 0 of 21 mixed pair_coeff terms from geometric mixing rule
Per MPI rank memory allocation (min/avg/max) = 9.773 | 9.773 | 9.773 Mbytes
   Step          Temp          E_pair         E_mol          TotEng         Press     
        18   3666.574       2.6948782      0.48248428     4.1252463      352.02973    
        19   2771.9906      2.7510275      0.65854728     4.1261906      363.26155    
Loop time of 0.00109026 on 1 procs for 1 steps with 3 atoms

run 1 pre yes post no
PPPM initialization ...
  using 12-bit tables for long-range coulomb (src/kspace.cpp:342)
  G vector (1/distance) = 0.28934131
  grid = 18 18 18
  stencil order = 5
  estimated absolute RMS force accuracy = 7.7110449e-05
  estimated relative force accuracy = 5.3550243e-06
  using double precision KISS FFT
  3d grid and FFT values/proc = 15625 5832
Generated 0 of 21 mixed pair_coeff terms from geometric mixing rule
Per MPI rank memory allocation (min/avg/max) = 9.773 | 9.773 | 9.773 Mbytes
   Step          Temp          E_pair         E_mol          TotEng         Press     
        19   2771.9906      2.7510275      0.65854728     4.1261906      363.26155    
        20   1933.3517      2.7983159      0.82894845     4.127075       369.98908    
Loop time of 0.00106641 on 1 procs for 1 steps with 3 atoms

run 1 pre yes post no
PPPM initialization ...
  using 12-bit tables for long-range coulomb (src/kspace.cpp:342)
  G vector (1/distance) = 0.28934131
  grid = 18 18 18
  stencil order = 5
  estimated absolute RMS force accuracy = 7.7110449e-05
  estimated relative force accuracy = 5.3550243e-06
  using double precision KISS FFT
  3d grid and FFT values/proc = 15625 5832
Generated 0 of 21 mixed pair_coeff terms from geometric mixing rule
Per MPI rank memory allocation (min/avg/max) = 9.773 | 9.773 | 9.773 Mbytes
   Step          Temp          E_pair         E_mol          TotEng         Press     
        20   1933.3517      2.7983159      0.82894845     4.127075       369.98908    
        21   1204.8845      2.8365723      0.97977961     4.127839       373.52419    
Loop time of 0.00113742 on 1 procs for 1 steps with 3 atoms

run 1 pre yes post no
PPPM initialization ...
  using 12-bit tables for long-range coulomb (src/kspace.cpp:342)
  G vector (1/distance) = 0.28934131
  grid = 18 18 18
  stencil order = 5
  estimated absolute RMS force accuracy = 7.7110449e-05
  estimated relative force accuracy = 5.3550243e-06
  using double precision KISS FFT
  3d grid and FFT values/proc = 15625 5832
Generated 0 of 21 mixed pair_coeff terms from geometric mixing rule
Per MPI rank memory allocation (min/avg/max) = 9.773 | 9.773 | 9.773 Mbytes
   Step          Temp          E_pair         E_mol          TotEng         Press     
        21   1204.8845      2.8365723      0.97977961     4.127839       373.52419    
        22   633.44212      2.8657023      1.0989704      4.1284304      375.0418     
Loop time of 0.00119353 on 1 procs for 1 steps with 3 atoms

run 1 pre yes post no
PPPM initialization ...
  using 12-bit tables for long-range coulomb (src/kspace.cpp:342)
  G vector (1/distance) = 0.28934131
  grid = 18 18 18
  stencil order = 5
  estimated absolute RMS force accuracy = 7.7110449e-05
  estimated relative force accuracy = 5.3550243e-06
  using double precision KISS FFT
  3d grid and FFT values/proc = 15625 5832
Generated 0 of 21 mixed pair_coeff terms from geometric mixing rule
Per MPI rank memory allocation (min/avg/max) = 9.773 | 9.773 | 9.773 Mbytes
   Step          Temp          E_pair         E_mol          TotEng         Press     
        22   633.44212      2.8657023      1.0989704      4.1284304      375.0418     
        23   255.30969      2.8856786      1.1771281      4.1288095      375.47637    
Loop time of 0.00108143 on 1 procs for 1 steps with 3 atoms

run 1 pre yes post no
PPPM initialization ...
  using 12-bit tables for long-range coulomb (src/kspace.cpp:342)
  G vector (1/distance) = 0.28934131
  grid = 18 18 18
  stencil order = 5
  estimated absolute RMS force accuracy = 7.7110449e-05
  estimated relative force accuracy = 5.3550243e-06
  using double precision KISS FFT
  3d grid and FFT values/proc = 15625 5832
Generated 0 of 21 mixed pair_coeff terms from geometric mixing rule
Per MPI rank memory allocation (min/avg/max) = 9.773 | 9.773 | 9.773 Mbytes
   Step          Temp          E_pair         E_mol          TotEng         Press     
        23   255.30969      2.8856786      1.1771281      4.1288095      375.47637    
        24   93.745019      2.8965321      1.2081837      4.1289508      375.44171    
Loop time of 0.00108664 on 1 procs for 1 steps with 3 atoms

run 1 pre yes post no
PPPM initialization ...
  using 12-bit tables for long-range coulomb (src/kspace.cpp:342)
  G vector (1/distance) = 0.28934131
  grid = 18 18 18
  stencil order = 5
  estimated absolute RMS force accuracy = 7.7110449e-05
  estimated relative force accuracy = 5.3550243e-06
  using double precision KISS FFT
  3d grid and FFT values/proc = 15625 5832
Generated 0 of 21 mixed pair_coeff terms from geometric mixing rule
Per MPI rank memory allocation (min/avg/max) = 9.773 | 9.773 | 9.773 Mbytes
   Step          Temp          E_pair         E_mol          TotEng         Press     
        24   93.745019      2.8965321      1.2081837      4.1289508      375.44171    
        25   157.41946      2.8983472      1.1898018      4.1288452      375.17985    
Loop time of 0.00109136 on 1 procs for 1 steps with 3 atoms

run 1 pre yes post no
PPPM initialization ...
  using 12-bit tables for long-range coulomb (src/kspace.cpp:342)
  G vector (1/distance) = 0.28934131
  grid = 18 18 18
  stencil order = 5
  estimated absolute RMS force accuracy = 7.7110449e-05
  estimated relative force accuracy = 5.3550243e-06
  using double precision KISS FFT
  3d grid and FFT values/proc = 15625 5832
Generated 0 of 21 mixed pair_coeff terms from geometric mixing rule
Per MPI rank memory allocation (min/avg/max) = 9.773 | 9.773 | 9.773 Mbytes
   Step          Temp          E_pair         E_mol          TotEng         Press     
        25   157.41946      2.8983472      1.1898018      4.1288452      375.17985    
        26   439.86382      2.8912614      1.1235267      4.1285018      374.54262    
Loop time of 0.00108814 on 1 procs for 1 steps with 3 atoms

run 1 pre yes post no
PPPM initialization ...
  using 12-bit tables for long-range coulomb (src/kspace.cpp:342)
  G vector (1/distance) = 0.28934131
  grid = 18 18 18
  stencil order = 5
  estimated absolute RMS force accuracy = 7.7110449e-05
  estimated relative force accuracy = 5.3550243e-06
  using double precision KISS FFT
  3d grid and FFT values/proc = 15625 5832
Generated 0 of 21 mixed pair_coeff terms from geometric mixing rule
Per MPI rank memory allocation (min/avg/max) = 9.773 | 9.773 | 9.773 Mbytes
   Step          Temp          E_pair         E_mol          TotEng         Press     
        26   439.86382      2.8912614      1.1235267      4.1285018      374.54262    
        27   919.95205      2.8754622      1.0146558      4.1279443      373.00658    
Loop time of 0.00115446 on 1 procs for 1 steps with 3 atoms

run 1 pre yes post no
PPPM initialization ...
  using 12-bit tables for long-range coulomb (src/kspace.cpp:342)
  G vector (1/distance) = 0.28934131
  grid = 18 18 18
  stencil order = 5
  estimated absolute RMS force accuracy = 7.7110449e-05
  estimated relative force accuracy = 5.3550243e-06
  using double precision KISS FFT
  3d grid and FFT values/proc = 15625 5832
Generated 0 of 21 mixed pair_coeff terms from geometric mixing rule
Per MPI rank memory allocation (min/avg/max) = 9.773 | 9.773 | 9.773 Mbytes
   Step          Temp          E_pair         E_mol          TotEng         Press     
        27   919.95205      2.8754622      1.0146558      4.1279443      373.00658    
        28   1563.3848      2.8511926      0.87185228     4.1272116      369.72084    
Loop time of 0.00110772 on 1 procs for 1 steps with 3 atoms

run 1 pre yes post no
PPPM initialization ...
  using 12-bit tables for long-range coulomb (src/kspace.cpp:342)
  G vector (1/distance) = 0.28934131
  grid = 18 18 18
  stencil order = 5
  estimated absolute RMS force accuracy = 7.7110449e-05
  estimated relative force accuracy = 5.3550243e-06
  using double precision KISS FFT
  3d grid and FFT values/proc = 15625 5832
Generated 0 of 21 mixed pair_coeff terms from geometric mixing rule
Per MPI rank memory allocation (min/avg/max) = 9.773 | 9.773 | 9.773 Mbytes
   Step          Temp          E_pair         E_mol          TotEng         Press     
        28   1563.3848      2.8511926      0.87185228     4.1272116      369.72084    
        29   2325.0682      2.8187546      0.70652201     4.1263539      363.58337    
Loop time of 0.00111682 on 1 procs for 1 steps with 3 atoms

run 1 pre yes post no
PPPM initialization ...
  using 12-bit tables for long-range coulomb (src/kspace.cpp:342)
  G vector (1/distance) = 0.28934131
  grid = 18 18 18
  stencil order = 5
  estimated absolute RMS force accuracy = 7.7110449e-05
  estimated relative force accuracy = 5.3550243e-06
  using double precision KISS FFT
  3d grid and FFT values/proc = 15625 5832
Generated 0 of 21 mixed pair_coeff terms from geometric mixing rule
Per MPI rank memory allocation (min/avg/max) = 9.773 | 9.773 | 9.773 Mbytes
   Step          Temp          E_pair         E_mol          TotEng         Press     
        29   2325.0682      2.8187546      0.70652201     4.1263539      363.58337    
        30   3152.2229      2.7785169      0.53200063     4.1254311      353.34096    
Loop time of 0.0011437 on 1 procs for 1 steps with 3 atoms

run 1 pre yes post no
PPPM initialization ...
  using 12-bit tables for long-range coulomb (src/kspace.cpp:342)
  G vector (1/distance) = 0.28934131
  grid = 18 18 18
  stencil order = 5
  estimated absolute RMS force accuracy = 7.7110449e-05
  estimated relative force accuracy = 5.3550243e-06
  using double precision KISS FFT
  3d grid and FFT values/proc = 15625 5832
Generated 0 of 21 mixed pair_coeff terms from geometric mixing rule
Per MPI rank memory allocation (min/avg/max) = 9.773 | 9.773 | 9.773 Mbytes
   Step          Temp          E_pair         E_mol          TotEng         Press     
        30   3152.2229      2.7785169      0.53200063     4.1254311      353.34096    
        31   3988.0125      2.7309191      0.3626046      4.1245058      337.70491    
Loop time of 0.00136205 on 1 procs for 1 steps with 3 atoms

run 1 pre yes post no
PPPM initialization ...
  using 12-bit tables for long-range coulomb (src/kspace.cpp:342)
  G vector (1/distance) = 0.28934131
  grid = 18 18 18
  stencil order = 5
  estimated absolute RMS force accuracy = 7.7110449e-05
  estimated relative force accuracy = 5.3550243e-06
  using double precision KISS FFT
  3d grid and FFT values/proc = 15625 5832
Generated 0 of 21 mixed pair_coeff terms from geometric mixing rule
Per MPI rank memory allocation (min/avg/max) = 9.773 | 9.773 | 9.773 Mbytes
   Step          Temp          E_pair         E_mol          TotEng         Press     
        31   3988.0125      2.7309191      0.3626046      4.1245058      337.70491    
        32   4775.4428      2.6764806      0.21261217     4.1236416      315.47478    
Loop time of 0.00108278 on 1 procs for 1 steps with 3 atoms

run 1 pre yes post no
PPPM initialization ...
  using 12-bit tables for long-range coulomb (src/kspace.cpp:342)
  G vector (1/distance) = 0.28934131
  grid = 18 18 18
  stencil order = 5
  estimated absolute RMS force accuracy = 7.7110449e-05
  estimated relative force accuracy = 5.3550243e-06
  using double precision KISS FFT
  3d grid and FFT values/proc = 15625 5832
Generated 0 of 21 mixed pair_coeff terms from geometric mixing rule
Per MPI rank memory allocation (min/avg/max) = 9.773 | 9.773 | 9.773 Mbytes
   Step          Temp          E_pair         E_mol          TotEng         Press     
        32   4775.4428      2.6764806      0.21261217     4.1236416      315.47478    
        33   5461.2689      2.6158058      0.095243449    4.1228981      285.66067    
Loop time of 0.00107201 on 1 procs for 1 steps with 3 atoms

run 1 pre yes post no
PPPM initialization ...
  using 12-bit tables for long-range coulomb (src/kspace.cpp:342)
  G vector (1/distance) = 0.28934131
  grid = 18 18 18
  stencil order = 5
  estimated absolute RMS force accuracy = 7.7110449e-05
  estimated relative force accuracy = 5.3550243e-06
  using double precision KISS FFT
  3d grid and FFT values/proc = 15625 5832
Generated 0 of 21 mixed pair_coeff terms from geometric mixing rule
Per MPI rank memory allocation (min/avg/max) = 9.773 | 9.773 | 9.773 Mbytes
   Step          Temp          E_pair         E_mol          TotEng         Press     
        33   5461.2689      2.6158058      0.095243449    4.1228981      285.66067    
        34   5999.6437      2.5495861      0.02170979     4.1223256      247.5951     
Loop time of 0.00108542 on 1 procs for 1 steps with 3 atoms

run 1 pre yes post no
PPPM initialization ...
  using 12-bit tables for long-range coulomb (src/kspace.cpp:342)
  G vector (1/distance) = 0.28934131
  grid = 18 18 18
  stencil order = 5
  estimated absolute RMS force accuracy = 7.7110449e-05
  estimated relative force accuracy = 5.3550243e-06
  using double precision KISS FFT
  3d grid and FFT values/proc = 15625 5832
Generated 0 of 21 mixed pair_coeff terms from geometric mixing rule
Per MPI rank memory allocation (min/avg/max) = 9.773 | 9.773 | 9.773 Mbytes
   Step          Temp          E_pair         E_mol          TotEng         Press     
        34   5999.6437      2.5495861      0.02170979     4.1223256      247.5951     
        35   6355.2582      2.4786027      0.00039788648  4.1219637      201.02635    
Loop time of 0.00111346 on 1 procs for 1 steps with 3 atoms

run 1 pre yes post no
PPPM initialization ...
  using 12-bit tables for long-range coulomb (src/kspace.cpp:342)
  G vector (1/distance) = 0.28934131
  grid = 18 18 18
  stencil order = 5
  estimated absolute RMS force accuracy = 7.7110449e-05
  estimated relative force accuracy = 5.3550243e-06
  using double precision KISS FFT
  3d grid and FFT values/proc = 15625 5832
Generated 0 of 21 mixed pair_coeff terms from geometric mixing rule
Per MPI rank memory allocation (min/avg/max) = 9.773 | 9.773 | 9.773 Mbytes
   Step          Temp          E_pair         E_mol          TotEng         Press     
        35   6355.2582      2.4786027      0.00039788648  4.1219637      201.02635    
        36   6505.7617      2.4037208      0.036245109    4.1218373      146.18567    
Loop time of 0.00276733 on 1 procs for 1 steps with 3 atoms

run 1 pre yes post no
PPPM initialization ...
  using 12-bit tables for long-range coulomb (src/kspace.cpp:342)
  G vector (1/distance) = 0.28934131
  grid = 18 18 18
  stencil order = 5
  estimated absolute RMS force accuracy = 7.7110449e-05
  estimated relative force accuracy = 5.3550243e-06
  using double precision KISS FFT
  3d grid and FFT values/proc = 15625 5832
Generated 0 of 21 mixed pair_coeff terms from geometric mixing rule
Per MPI rank memory allocation (min/avg/max) = 9.773 | 9.773 | 9.773 Mbytes
   Step          Temp          E_pair         E_mol          TotEng         Press     
        36   6505.7617      2.4037208      0.036245109    4.1218373      146.18567    
        37   6443.2915      2.3258834      0.13034979     4.1219548      83.822845    
Loop time of 0.00256139 on 1 procs for 1 steps with 3 atoms

run 1 pre yes post no
PPPM initialization ...
  using 12-bit tables for long-range coulomb (src/kspace.cpp:342)
  G vector (1/distance) = 0.28934131
  grid = 18 18 18
  stencil order = 5
  estimated absolute RMS force accuracy = 7.7110449e-05
  estimated relative force accuracy = 5.3550243e-06
  using double precision KISS FFT
  3d grid and FFT values/proc = 15625 5832
Generated 0 of 21 mixed pair_coeff terms from geometric mixing rule
Per MPI rank memory allocation (min/avg/max) = 9.773 | 9.773 | 9.773 Mbytes
   Step          Temp          E_pair         E_mol          TotEng         Press     
        37   6443.2915      2.3258834      0.13034979     4.1219548      83.822845    
        38   6175.0113      2.2460979      0.27984415     4.1223078      15.206905    
Loop time of 0.00252798 on 1 procs for 1 steps with 3 atoms

run 1 pre yes post no
PPPM initialization ...
  using 12-bit tables for long-range coulomb (src/kspace.cpp:342)
  G vector (1/distance) = 0.28934131
  grid = 18 18 18
  stencil order = 5
  estimated absolute RMS force accuracy = 7.7110449e-05
  estimated relative force accuracy = 5.3550243e-06
  using double precision KISS FFT
  3d grid and FFT values/proc = 15625 5832
Generated 0 of 21 mixed pair_coeff terms from geometric mixing rule
Per MPI rank memory allocation (min/avg/max) = 9.773 | 9.773 | 9.773 Mbytes
   Step          Temp          E_pair         E_mol          TotEng         Press     
        38   6175.0113      2.2460979      0.27984415     4.1223078      15.206905    
        39   5722.6244      2.1654233      0.47803957     4.1228774     -57.909209    
Loop time of 0.00267389 on 1 procs for 1 steps with 3 atoms

run 1 pre yes post no
PPPM initialization ...
  using 12-bit tables for long-range coulomb (src/kspace.cpp:342)
  G vector (1/distance) = 0.28934131
  grid = 18 18 18
  stencil order = 5
  estimated absolute RMS force accuracy = 7.7110449e-05
  estimated relative force accuracy = 5.3550243e-06
  using double precision KISS FFT
  3d grid and FFT values/proc = 15625 5832
Generated 0 of 21 mixed pair_coeff terms from geometric mixing rule
Per MPI rank memory allocation (min/avg/max) = 9.773 | 9.773 | 9.773 Mbytes
   Step          Temp          E_pair         E_mol          TotEng         Press     
        39   5722.6244      2.1654233      0.47803957     4.1228774     -57.909209    
        40   5120.9425      2.0849463      0.7148359      4.1236497     -133.35825    
Loop time of 0.00254848 on 1 procs for 1 steps with 3 atoms

run 1 pre yes post no
PPPM initialization ...
  using 12-bit tables for long-range coulomb (src/kspace.cpp:342)
  G vector (1/distance) = 0.28934131
  grid = 18 18 18
  stencil order = 5
  estimated absolute RMS force accuracy = 7.7110449e-05
  estimated relative force accuracy = 5.3550243e-06
  using double precision KISS FFT
  3d grid and FFT values/proc = 15625 5832
Generated 0 of 21 mixed pair_coeff terms from geometric mixing rule
Per MPI rank memory allocation (min/avg/max) = 9.773 | 9.773 | 9.773 Mbytes
   Step          Temp          E_pair         E_mol          TotEng         Press     
        40   5120.9425      2.0849463      0.7148359      4.1236497     -133.35825    
        41   4415.7369      2.005763       0.97737089     4.1246915     -208.65661    
Loop time of 0.0025576 on 1 procs for 1 steps with 3 atoms

run 1 pre yes post no
PPPM initialization ...
  using 12-bit tables for long-range coulomb (src/kspace.cpp:342)
  G vector (1/distance) = 0.28934131
  grid = 18 18 18
  stencil order = 5
  estimated absolute RMS force accuracy = 7.7110449e-05
  estimated relative force accuracy = 5.3550243e-06
  using double precision KISS FFT
  3d grid and FFT values/proc = 15625 5832
Generated 0 of 21 mixed pair_coeff terms from geometric mixing rule
Per MPI rank memory allocation (min/avg/max) = 9.773 | 9.773 | 9.773 Mbytes
   Step          Temp          E_pair         E_mol          TotEng         Press     
        41   4415.7369      2.005763       0.97737089     4.1246915     -208.65661    
        42   3661.1495      1.9289532      1.2508804      4.1263151     -281.12581    
Loop time of 0.00255665 on 1 procs for 1 steps with 3 atoms

run 1 pre yes post no
PPPM initialization ...
  using 12-bit tables for long-range coulomb (src/kspace.cpp:342)
  G vector (1/distance) = 0.28934131
  grid = 18 18 18
  stencil order = 5
  estimated absolute RMS force accuracy = 7.7110449e-05
  estimated relative force accuracy = 5.3550243e-06
  using double precision KISS FFT
  3d grid and FFT values/proc = 15625 5832
Generated 0 of 21 mixed pair_coeff terms from geometric mixing rule
Per MPI rank memory allocation (min/avg/max) = 9.773 | 9.773 | 9.773 Mbytes
   Step          Temp          E_pair         E_mol          TotEng         Press     
        42   3661.1495      1.9289532      1.2508804      4.1263151     -281.12581    
        43   2916.5443      1.8555412      1.5197459      4.129273      -348.04034    
Loop time of 0.00258505 on 1 procs for 1 steps with 3 atoms

run 1 pre yes post no
PPPM initialization ...
  using 12-bit tables for long-range coulomb (src/kspace.cpp:342)
  G vector (1/distance) = 0.28934131
  grid = 18 18 18
  stencil order = 5
  estimated absolute RMS force accuracy = 7.7110449e-05
  estimated relative force accuracy = 5.3550243e-06
  using double precision KISS FFT
  3d grid and FFT values/proc = 15625 5832
Generated 0 of 21 mixed pair_coeff terms from geometric mixing rule
Per MPI rank memory allocation (min/avg/max) = 9.773 | 9.773 | 9.773 Mbytes
   Step          Temp          E_pair         E_mol          TotEng         Press     
        43   2916.5443      1.8555412      1.5197459      4.129273      -348.04034    
        44   2241.9712      1.7864445      1.768697       4.1347365     -406.81515    
Loop time of 0.00260793 on 1 procs for 1 steps with 3 atoms

run 1 pre yes post no
PPPM initialization ...
  using 12-bit tables for long-range coulomb (src/kspace.cpp:342)
  G vector (1/distance) = 0.28934131
  grid = 18 18 18
  stencil order = 5
  estimated absolute RMS force accuracy = 7.7110449e-05
  estimated relative force accuracy = 5.3550243e-06
  using double precision KISS FFT
  3d grid and FFT values/proc = 15625 5832
Generated 0 of 21 mixed pair_coeff terms from geometric mixing rule
Per MPI rank memory allocation (min/avg/max) = 9.773 | 9.773 | 9.773 Mbytes
   Step          Temp          E_pair         E_mol          TotEng         Press     
        44   2241.9712      1.7864445      1.768697       4.1347365     -406.81515    
        45   1691.6923      1.722408       1.9840693      4.1438141     -455.23077    
Loop time of 0.00319216 on 1 procs for 1 steps with 3 atoms

run 1 pre yes post no
PPPM initialization ...
  using 12-bit tables for long-range coulomb (src/kspace.cpp:342)
  G vector (1/distance) = 0.28934131
  grid = 18 18 18
  stencil order = 5
  estimated absolute RMS force accuracy = 7.7110449e-05
  estimated relative force accuracy = 5.3550243e-06
  using double precision KISS FFT
  3d grid and FFT values/proc = 15625 5832
Generated 0 of 21 mixed pair_coeff terms from geometric mixing rule
Per MPI rank memory allocation (min/avg/max) = 9.773 | 9.773 | 9.773 Mbytes
   Step          Temp          E_pair         E_mol          TotEng         Press     
        45   1691.6923      1.722408       1.9840693      4.1438141     -455.23077    
        46   1307.1092      1.6639656      2.1549106      4.1567904     -491.64736    
Loop time of 0.00594605 on 1 procs for 1 steps with 3 atoms

run 1 pre yes post no
PPPM initialization ...
  using 12-bit tables for long-range coulomb (src/kspace.cpp:342)
  G vector (1/distance) = 0.28934131
  grid = 18 18 18
  stencil order = 5
  estimated absolute RMS force accuracy = 7.7110449e-05
  estimated relative force accuracy = 5.3550243e-06
  using double precision KISS FFT
  3d grid and FFT values/proc = 15625 5832
Generated 0 of 21 mixed pair_coeff terms from geometric mixing rule
Per MPI rank memory allocation (min/avg/max) = 9.773 | 9.773 | 9.773 Mbytes
   Step          Temp          E_pair         E_mol          TotEng         Press     
        46   1307.1092      1.6639656      2.1549106      4.1567904     -491.64736    
        47   1111.9679      1.6114317      2.2737016      4.1725995     -515.13334    
Loop time of 0.00474142 on 1 procs for 1 steps with 3 atoms

run 1 pre yes post no
PPPM initialization ...
  using 12-bit tables for long-range coulomb (src/kspace.cpp:342)
  G vector (1/distance) = 0.28934131
  grid = 18 18 18
  stencil order = 5
  estimated absolute RMS force accuracy = 7.7110449e-05
  estimated relative force accuracy = 5.3550243e-06
  using double precision KISS FFT
  3d grid and FFT values/proc = 15625 5832
Generated 0 of 21 mixed pair_coeff terms from geometric mixing rule
Per MPI rank memory allocation (min/avg/max) = 9.773 | 9.773 | 9.773 Mbytes
   Step          Temp          E_pair         E_mol          TotEng         Press     
        47   1111.9679      1.6114317      2.2737016      4.1725995     -515.13334    
        48   1111.7771      1.5649618      2.3365718      4.1889505     -525.46632    
Loop time of 0.00435378 on 1 procs for 1 steps with 3 atoms

run 1 pre yes post no
PPPM initialization ...
  using 12-bit tables for long-range coulomb (src/kspace.cpp:342)
  G vector (1/distance) = 0.28934131
  grid = 18 18 18
  stencil order = 5
  estimated absolute RMS force accuracy = 7.7110449e-05
  estimated relative force accuracy = 5.3550243e-06
  using double precision KISS FFT
  3d grid and FFT values/proc = 15625 5832
Generated 0 of 21 mixed pair_coeff terms from geometric mixing rule
Per MPI rank memory allocation (min/avg/max) = 9.773 | 9.773 | 9.773 Mbytes
   Step          Temp          E_pair         E_mol          TotEng         Press     
        48   1111.7771      1.5649618      2.3365718      4.1889505     -525.46632    
        49   1296.9599      1.5246282      2.3430624      4.2029811     -523.02716    
Loop time of 0.00319768 on 1 procs for 1 steps with 3 atoms

run 1 pre yes post no
PPPM initialization ...
  using 12-bit tables for long-range coulomb (src/kspace.cpp:342)
  G vector (1/distance) = 0.28934131
  grid = 18 18 18
  stencil order = 5
  estimated absolute RMS force accuracy = 7.7110449e-05
  estimated relative force accuracy = 5.3550243e-06
  using double precision KISS FFT
  3d grid and FFT values/proc = 15625 5832
Generated 0 of 21 mixed pair_coeff terms from geometric mixing rule
Per MPI rank memory allocation (min/avg/max) = 9.773 | 9.773 | 9.773 Mbytes
   Step          Temp          E_pair         E_mol          TotEng         Press     
        49   1296.9599      1.5246282      2.3430624      4.2029811     -523.02716    
        50   1647.7494      1.4905123      2.2956001      4.2120891     -508.64194    
Loop time of 0.00281589 on 1 procs for 1 steps with 3 atoms

run 1 pre yes post no
PPPM initialization ...
  using 12-bit tables for long-range coulomb (src/kspace.cpp:342)
  G vector (1/distance) = 0.28934131
  grid = 18 18 18
  stencil order = 5
  estimated absolute RMS force accuracy = 7.7110449e-05
  estimated relative force accuracy = 5.3550243e-06
  using double precision KISS FFT
  3d grid and FFT values/proc = 15625 5832
Generated 0 of 21 mixed pair_coeff terms from geometric mixing rule
Per MPI rank memory allocation (min/avg/max) = 9.773 | 9.773 | 9.773 Mbytes
   Step          Temp          E_pair         E_mol          TotEng         Press     
        50   1647.7494      1.4905123      2.2956001      4.2120891     -508.64194    
        51   2138.9164      1.4627766      2.198865       4.2145949     -483.42472    
Loop time of 0.00292119 on 1 procs for 1 steps with 3 atoms

run 1 pre yes post no
PPPM initialization ...
  using 12-bit tables for long-range coulomb (src/kspace.cpp:342)
  G vector (1/distance) = 0.28934131
  grid = 18 18 18
  stencil order = 5
  estimated absolute RMS force accuracy = 7.7110449e-05
  estimated relative force accuracy = 5.3550243e-06
  using double precision KISS FFT
  3d grid and FFT values/proc = 15625 5832
Generated 0 of 21 mixed pair_coeff terms from geometric mixing rule
Per MPI rank memory allocation (min/avg/max) = 9.773 | 9.773 | 9.773 Mbytes
   Step          Temp          E_pair         E_mol          TotEng         Press     
        51   2138.9164      1.4627766      2.198865       4.2145949     -483.42472    
        52   2743.2745      1.4416961      2.0591931      4.2100813     -448.65227    
Loop time of 0.0025399 on 1 procs for 1 steps with 3 atoms

run 1 pre yes post no
PPPM initialization ...
  using 12-bit tables for long-range coulomb (src/kspace.cpp:342)
  G vector (1/distance) = 0.28934131
  grid = 18 18 18
  stencil order = 5
  estimated absolute RMS force accuracy = 7.7110449e-05
  estimated relative force accuracy = 5.3550243e-06
  using double precision KISS FFT
  3d grid and FFT values/proc = 15625 5832
Generated 0 of 21 mixed pair_coeff terms from geometric mixing rule
Per MPI rank memory allocation (min/avg/max) = 9.773 | 9.773 | 9.773 Mbytes
   Step          Temp          E_pair         E_mol          TotEng         Press     
        52   2743.2745      1.4416961      2.0591931      4.2100813     -448.65227    
        53   3433.7022      1.4276648      1.8840876      4.1994341     -405.68009    
Loop time of 0.00256901 on 1 procs for 1 steps with 3 atoms

run 1 pre yes post no
PPPM initialization ...
  using 12-bit tables for long-range coulomb (src/kspace.cpp:342)
  G vector (1/distance) = 0.28934131
  grid = 18 18 18
  stencil order = 5
  estimated absolute RMS force accuracy = 7.7110449e-05
  estimated relative force accuracy = 5.3550243e-06
  using double precision KISS FFT
  3d grid and FFT values/proc = 15625 5832
Generated 0 of 21 mixed pair_coeff terms from geometric mixing rule
Per MPI rank memory allocation (min/avg/max) = 9.773 | 9.773 | 9.773 Mbytes
   Step          Temp          E_pair         E_mol          TotEng         Press     
        53   3433.7022      1.4276648      1.8840876      4.1994341     -405.68009    
        54   4183.8106      1.4211595      1.6818589      4.1846183     -355.89875    
Loop time of 0.00251865 on 1 procs for 1 steps with 3 atoms

run 1 pre yes post no
PPPM initialization ...
  using 12-bit tables for long-range coulomb (src/kspace.cpp:342)
  G vector (1/distance) = 0.28934131
  grid = 18 18 18
  stencil order = 5
  estimated absolute RMS force accuracy = 7.7110449e-05
  estimated relative force accuracy = 5.3550243e-06
  using double precision KISS FFT
  3d grid and FFT values/proc = 15625 5832
Generated 0 of 21 mixed pair_coeff terms from geometric mixing rule
Per MPI rank memory allocation (min/avg/max) = 9.773 | 9.773 | 9.773 Mbytes
   Step          Temp          E_pair         E_mol          TotEng         Press     
        54   4183.8106      1.4211595      1.6818589      4.1846183     -355.89875    
        55   4967.4626      1.4226674      1.4613751      4.1682323     -300.7258     
Loop time of 0.00261962 on 1 procs for 1 steps with 3 atoms

run 1 pre yes post no
PPPM initialization ...
  using 12-bit tables for long-range coulomb (src/kspace.cpp:342)
  G vector (1/distance) = 0.28934131
  grid = 18 18 18
  stencil order = 5
  estimated absolute RMS force accuracy = 7.7110449e-05
  estimated relative force accuracy = 5.3550243e-06
  using double precision KISS FFT
  3d grid and FFT values/proc = 15625 5832
Generated 0 of 21 mixed pair_coeff terms from geometric mixing rule
Per MPI rank memory allocation (min/avg/max) = 9.773 | 9.773 | 9.773 Mbytes
   Step          Temp          E_pair         E_mol          TotEng         Press     
        55   4967.4626      1.4226674      1.4613751      4.1682323     -300.7258     
        56   5757.4581      1.4326035      1.2318733      4.1528965     -241.62524    
Loop time of 0.00267831 on 1 procs for 1 steps with 3 atoms

run 1 pre yes post no
PPPM initialization ...
  using 12-bit tables for long-range coulomb (src/kspace.cpp:342)
  G vector (1/distance) = 0.28934131
  grid = 18 18 18
  stencil order = 5
  estimated absolute RMS force accuracy = 7.7110449e-05
  estimated relative force accuracy = 5.3550243e-06
  using double precision KISS FFT
  3d grid and FFT values/proc = 15625 5832
Generated 0 of 21 mixed pair_coeff terms from geometric mixing rule
Per MPI rank memory allocation (min/avg/max) = 9.773 | 9.773 | 9.773 Mbytes
   Step          Temp          E_pair         E_mol          TotEng         Press     
        56   5757.4581      1.4326035      1.2318733      4.1528965     -241.62524    
        57   6524.1486      1.4511842      1.0027532      4.1405622     -180.13853    
Loop time of 0.00263345 on 1 procs for 1 steps with 3 atoms

run 1 pre yes post no
PPPM initialization ...
  using 12-bit tables for long-range coulomb (src/kspace.cpp:342)
  G vector (1/distance) = 0.28934131
  grid = 18 18 18
  stencil order = 5
  estimated absolute RMS force accuracy = 7.7110449e-05
  estimated relative force accuracy = 5.3550243e-06
  using double precision KISS FFT
  3d grid and FFT values/proc = 15625 5832
Generated 0 of 21 mixed pair_coeff terms from geometric mixing rule
Per MPI rank memory allocation (min/avg/max) = 9.773 | 9.773 | 9.773 Mbytes
   Step          Temp          E_pair         E_mol          TotEng         Press     
        57   6524.1486      1.4511842      1.0027532      4.1405622     -180.13853    
        58   7235.3187      1.4783216      0.78325063     4.132049      -117.89213    
Loop time of 0.00262737 on 1 procs for 1 steps with 3 atoms

run 1 pre yes post no
PPPM initialization ...
  using 12-bit tables for long-range coulomb (src/kspace.cpp:342)
  G vector (1/distance) = 0.28934131
  grid = 18 18 18
  stencil order = 5
  estimated absolute RMS force accuracy = 7.7110449e-05
  estimated relative force accuracy = 5.3550243e-06
  using double precision KISS FFT
  3d grid and FFT values/proc = 15625 5832
Generated 0 of 21 mixed pair_coeff terms from geometric mixing rule
Per MPI rank memory allocation (min/avg/max) = 9.773 | 9.773 | 9.773 Mbytes
   Step          Temp          E_pair         E_mol          TotEng         Press     
        58   7235.3187      1.4783216      0.78325063     4.132049      -117.89213    
        59   7858.4857      1.5135404      0.58192494     4.1270434     -56.549624    
Loop time of 0.0028123 on 1 procs for 1 steps with 3 atoms

run 1 pre yes post no
PPPM initialization ...
  using 12-bit tables for long-range coulomb (src/kspace.cpp:342)
  G vector (1/distance) = 0.28934131
  grid = 18 18 18
  stencil order = 5
  estimated absolute RMS force accuracy = 7.7110449e-05
  estimated relative force accuracy = 5.3550243e-06
  using double precision KISS FFT
  3d grid and FFT values/proc = 15625 5832
Generated 0 of 21 mixed pair_coeff terms from geometric mixing rule
Per MPI rank memory allocation (min/avg/max) = 9.773 | 9.773 | 9.773 Mbytes
   Step          Temp          E_pair         E_mol          TotEng         Press     
        59   7858.4857      1.5135404      0.58192494     4.1270434     -56.549624    
        60   8365.3268      1.5559787      0.40599798     4.1245834      2.2962504    
Loop time of 0.00265474 on 1 procs for 1 steps with 3 atoms

run 1 pre yes post no
PPPM initialization ...
  using 12-bit tables for long-range coulomb (src/kspace.cpp:342)
  G vector (1/distance) = 0.28934131
  grid = 18 18 18
  stencil order = 5
  estimated absolute RMS force accuracy = 7.7110449e-05
  estimated relative force accuracy = 5.3550243e-06
  using double precision KISS FFT
  3d grid and FFT values/proc = 15625 5832
Generated 0 of 21 mixed pair_coeff terms from geometric mixing rule
Per MPI rank memory allocation (min/avg/max) = 9.773 | 9.773 | 9.773 Mbytes
   Step          Temp          E_pair         E_mol          TotEng         Press     
        60   8365.3268      1.5559787      0.40599798     4.1245834      2.2962504    
        61   8736.3114      1.6044286      0.26069747     4.1236398      57.25149     
Loop time of 0.0027007 on 1 procs for 1 steps with 3 atoms

run 1 pre yes post no
PPPM initialization ...
  using 12-bit tables for long-range coulomb (src/kspace.cpp:342)
  G vector (1/distance) = 0.28934131
  grid = 18 18 18
  stencil order = 5
  estimated absolute RMS force accuracy = 7.7110449e-05
  estimated relative force accuracy = 5.3550243e-06
  using double precision KISS FFT
  3d grid and FFT values/proc = 15625 5832
Generated 0 of 21 mixed pair_coeff terms from geometric mixing rule
Per MPI rank memory allocation (min/avg/max) = 9.773 | 9.773 | 9.773 Mbytes
   Step          Temp          E_pair         E_mol          TotEng         Press     
        61   8736.3114      1.6044286      0.26069747     4.1236398      57.25149     
        62   8963.5148      1.6574465      0.14878489     4.1234818      107.22079    
Loop time of 0.00362612 on 1 procs for 1 steps with 3 atoms

run 1 pre yes post no
PPPM initialization ...
  using 12-bit tables for long-range coulomb (src/kspace.cpp:342)
  G vector (1/distance) = 0.28934131
  grid = 18 18 18
  stencil order = 5
  estimated absolute RMS force accuracy = 7.7110449e-05
  estimated relative force accuracy = 5.3550243e-06
  using double precision KISS FFT
  3d grid and FFT values/proc = 15625 5832
Generated 0 of 21 mixed pair_coeff terms from geometric mixing rule
Per MPI rank memory allocation (min/avg/max) = 9.773 | 9.773 | 9.773 Mbytes
   Step          Temp          E_pair         E_mol          TotEng         Press     
        62   8963.5148      1.6574465      0.14878489     4.1234818      107.22079    
        63   9051.0107      1.7134644      0.070375925    4.1237103      151.4533     
Loop time of 0.00272627 on 1 procs for 1 steps with 3 atoms

run 1 pre yes post no
PPPM initialization ...
  using 12-bit tables for long-range coulomb (src/kspace.cpp:342)
  G vector (1/distance) = 0.28934131
  grid = 18 18 18
  stencil order = 5
  estimated absolute RMS force accuracy = 7.7110449e-05
  estimated relative force accuracy = 5.3550243e-06
  using double precision KISS FFT
  3d grid and FFT values/proc = 15625 5832
Generated 0 of 21 mixed pair_coeff terms from geometric mixing rule
Per MPI rank memory allocation (min/avg/max) = 9.773 | 9.773 | 9.773 Mbytes
   Step          Temp          E_pair         E_mol          TotEng         Press     
        63   9051.0107      1.7134644      0.070375925    4.1237103      151.4533     
        64   9013.502       1.7709054      0.023063431    4.124142       189.5407     
Loop time of 0.00263421 on 1 procs for 1 steps with 3 atoms

run 1 pre yes post no
PPPM initialization ...
  using 12-bit tables for long-range coulomb (src/kspace.cpp:342)
  G vector (1/distance) = 0.28934131
  grid = 18 18 18
  stencil order = 5
  estimated absolute RMS force accuracy = 7.7110449e-05
  estimated relative force accuracy = 5.3550243e-06
  using double precision KISS FFT
  3d grid and FFT values/proc = 15625 5832
Generated 0 of 21 mixed pair_coeff terms from geometric mixing rule
Per MPI rank memory allocation (min/avg/max) = 9.773 | 9.773 | 9.773 Mbytes
   Step          Temp          E_pair         E_mol          TotEng         Press     
        64   9013.502       1.7709054      0.023063431    4.124142       189.5407     
        65   8874.0291      1.828266       0.0022973677   4.1246799      221.38173    
Loop time of 0.00265145 on 1 procs for 1 steps with 3 atoms

run 1 pre yes post no
PPPM initialization ...
  using 12-bit tables for long-range coulomb (src/kspace.cpp:342)
  G vector (1/distance) = 0.28934131
  grid = 18 18 18
  stencil order = 5
  estimated absolute RMS force accuracy = 7.7110449e-05
  estimated relative force accuracy = 5.3550243e-06
  using double precision KISS FFT
  3d grid and FFT values/proc = 15625 5832
Generated 0 of 21 mixed pair_coeff terms from geometric mixing rule
Per MPI rank memory allocation (min/avg/max) = 9.773 | 9.773 | 9.773 Mbytes
   Step          Temp          E_pair         E_mol          TotEng         Press     
        65   8874.0291      1.828266       0.0022973677   4.1246799      221.38173    
        66   8661.2137      1.8842025      0.0019602748   4.1252623      247.1258     
Loop time of 0.00263062 on 1 procs for 1 steps with 3 atoms

run 1 pre yes post no
PPPM initialization ...
  using 12-bit tables for long-range coulomb (src/kspace.cpp:342)
  G vector (1/distance) = 0.28934131
  grid = 18 18 18
  stencil order = 5
  estimated absolute RMS force accuracy = 7.7110449e-05
  estimated relative force accuracy = 5.3550243e-06
  using double precision KISS FFT
  3d grid and FFT values/proc = 15625 5832
Generated 0 of 21 mixed pair_coeff terms from geometric mixing rule
Per MPI rank memory allocation (min/avg/max) = 9.773 | 9.773 | 9.773 Mbytes
   Step          Temp          E_pair         E_mol          TotEng         Press     
        66   8661.2137      1.8842025      0.0019602748   4.1252623      247.1258     
        67   8406.2352      1.9375722      0.015073488    4.1258281      267.10073    
Loop time of 0.00276724 on 1 procs for 1 steps with 3 atoms

run 1 pre yes post no
PPPM initialization ...
  using 12-bit tables for long-range coulomb (src/kspace.cpp:342)
  G vector (1/distance) = 0.28934131
  grid = 18 18 18
  stencil order = 5
  estimated absolute RMS force accuracy = 7.7110449e-05
  estimated relative force accuracy = 5.3550243e-06
  using double precision KISS FFT
  3d grid and FFT values/proc = 15625 5832
Generated 0 of 21 mixed pair_coeff terms from geometric mixing rule
Per MPI rank memory allocation (min/avg/max) = 9.773 | 9.773 | 9.773 Mbytes
   Step          Temp          E_pair         E_mol          TotEng         Press     
        67   8406.2352      1.9375722      0.015073488    4.1258281      267.10073    
        68   8139.723       1.9874795      0.034564137    4.1263272      281.73305    
Loop time of 0.00297065 on 1 procs for 1 steps with 3 atoms

run 1 pre yes post no
PPPM initialization ...
  using 12-bit tables for long-range coulomb (src/kspace.cpp:342)
  G vector (1/distance) = 0.28934131
  grid = 18 18 18
  stencil order = 5
  estimated absolute RMS force accuracy = 7.7110449e-05
  estimated relative force accuracy = 5.3550243e-06
  using double precision KISS FFT
  3d grid and FFT values/proc = 15625 5832
Generated 0 of 21 mixed pair_coeff terms from geometric mixing rule
Per MPI rank memory allocation (min/avg/max) = 9.773 | 9.773 | 9.773 Mbytes
   Step          Temp          E_pair         E_mol          TotEng         Press     
        68   8139.723       1.9874795      0.034564137    4.1263272      281.73305    
        69   7888.798       2.0332809      0.054017214    4.1267124      291.46724    
Loop time of 0.00270927 on 1 procs for 1 steps with 3 atoms

run 1 pre yes post no
PPPM initialization ...
  using 12-bit tables for long-range coulomb (src/kspace.cpp:342)
  G vector (1/distance) = 0.28934131
  grid = 18 18 18
  stencil order = 5
  estimated absolute RMS force accuracy = 7.7110449e-05
  estimated relative force accuracy = 5.3550243e-06
  using double precision KISS FFT
  3d grid and FFT values/proc = 15625 5832
Generated 0 of 21 mixed pair_coeff terms from geometric mixing rule
Per MPI rank memory allocation (min/avg/max) = 9.773 | 9.773 | 9.773 Mbytes
   Step          Temp          E_pair         E_mol          TotEng         Press     
        69   7888.798       2.0332809      0.054017214    4.1267124      291.46724    
        70   7674.5311      2.0745933      0.068335822    4.1269511      296.694      
Loop time of 0.00291694 on 1 procs for 1 steps with 3 atoms

run 1 pre yes post no
PPPM initialization ...
  using 12-bit tables for long-range coulomb (src/kspace.cpp:342)
  G vector (1/distance) = 0.28934131
  grid = 18 18 18
  stencil order = 5
  estimated absolute RMS force accuracy = 7.7110449e-05
  estimated relative force accuracy = 5.3550243e-06
  using double precision KISS FFT
  3d grid and FFT values/proc = 15625 5832
Generated 0 of 21 mixed pair_coeff terms from geometric mixing rule
Per MPI rank memory allocation (min/avg/max) = 9.773 | 9.773 | 9.773 Mbytes
   Step          Temp          E_pair         E_mol          TotEng         Press     
        70   7674.5311      2.0745933      0.068335822    4.1269511      296.694      
        71   7510.0702      2.1112797      0.074239753    4.127025       297.69485    
Loop time of 0.00314175 on 1 procs for 1 steps with 3 atoms

run 1 pre yes post no
PPPM initialization ...
  using 12-bit tables for long-range coulomb (src/kspace.cpp:342)
  G vector (1/distance) = 0.28934131
  grid = 18 18 18
  stencil order = 5
  estimated absolute RMS force accuracy = 7.7110449e-05
  estimated relative force accuracy = 5.3550243e-06
  using double precision KISS FFT
  3d grid and FFT values/proc = 15625 5832
Generated 0 of 21 mixed pair_coeff terms from geometric mixing rule
Per MPI rank memory allocation (min/avg/max) = 9.773 | 9.773 | 9.773 Mbytes
   Step          Temp          E_pair         E_mol          TotEng         Press     
        71   7510.0702      2.1112797      0.074239753    4.127025       297.69485    
        72   7399.6255      2.1434308      0.070549213    4.1269334      294.61004    
Loop time of 0.00281058 on 1 procs for 1 steps with 3 atoms

run 1 pre yes post no
PPPM initialization ...
  using 12-bit tables for long-range coulomb (src/kspace.cpp:342)
  G vector (1/distance) = 0.28934131
  grid = 18 18 18
  stencil order = 5
  estimated absolute RMS force accuracy = 7.7110449e-05
  estimated relative force accuracy = 5.3550243e-06
  using double precision KISS FFT
  3d grid and FFT values/proc = 15625 5832
Generated 0 of 21 mixed pair_coeff terms from geometric mixing rule
Per MPI rank memory allocation (min/avg/max) = 9.773 | 9.773 | 9.773 Mbytes
   Step          Temp          E_pair         E_mol          TotEng         Press     
        72   7399.6255      2.1434308      0.070549213    4.1269334      294.61004    
        73   7338.4135      2.1713376      0.058225486    4.1266919      287.43281    
Loop time of 0.00262424 on 1 procs for 1 steps with 3 atoms

run 1 pre yes post no
PPPM initialization ...
  using 12-bit tables for long-range coulomb (src/kspace.cpp:342)
  G vector (1/distance) = 0.28934131
  grid = 18 18 18
  stencil order = 5
  estimated absolute RMS force accuracy = 7.7110449e-05
  estimated relative force accuracy = 5.3550243e-06
  using double precision KISS FFT
  3d grid and FFT values/proc = 15625 5832
Generated 0 of 21 mixed pair_coeff terms from geometric mixing rule
Per MPI rank memory allocation (min/avg/max) = 9.773 | 9.773 | 9.773 Mbytes
   Step          Temp          E_pair         E_mol          TotEng         Press     
        73   7338.4135      2.1713376      0.058225486    4.1266919      287.43281    
        74   7313.5466      2.1954623      0.04017002     4.1263326      276.03048    
Loop time of 0.00302924 on 1 procs for 1 steps with 3 atoms

run 1 pre yes post no
PPPM initialization ...
  using 12-bit tables for long-range coulomb (src/kspace.cpp:342)
  G vector (1/distance) = 0.28934131
  grid = 18 18 18
  stencil order = 5
  estimated absolute RMS force accuracy = 7.7110449e-05
  estimated relative force accuracy = 5.3550243e-06
  using double precision KISS FFT
  3d grid and FFT values/proc = 15625 5832
Generated 0 of 21 mixed pair_coeff terms from geometric mixing rule
Per MPI rank memory allocation (min/avg/max) = 9.773 | 9.773 | 9.773 Mbytes
   Step          Temp          E_pair         E_mol          TotEng         Press     
        74   7313.5466      2.1954623      0.04017002     4.1263326      276.03048    
        75   7305.7479      2.2164002      0.020812542    4.1258968      260.1885     
Loop time of 0.00300879 on 1 procs for 1 steps with 3 atoms

run 1 pre yes post no
PPPM initialization ...
  using 12-bit tables for long-range coulomb (src/kspace.cpp:342)
  G vector (1/distance) = 0.28934131
  grid = 18 18 18
  stencil order = 5
  estimated absolute RMS force accuracy = 7.7110449e-05
  estimated relative force accuracy = 5.3550243e-06
  using double precision KISS FFT
  3d grid and FFT values/proc = 15625 5832
Generated 0 of 21 mixed pair_coeff terms from geometric mixing rule
Per MPI rank memory allocation (min/avg/max) = 9.773 | 9.773 | 9.773 Mbytes
   Step          Temp          E_pair         E_mol          TotEng         Press     
        75   7305.7479      2.2164002      0.020812542    4.1258968      260.1885     
        76   7291.6786      2.2348433      0.0055422701   4.1254324      239.67198    
Loop time of 0.00257571 on 1 procs for 1 steps with 3 atoms

run 1 pre yes post no
PPPM initialization ...
  using 12-bit tables for long-range coulomb (src/kspace.cpp:342)
  G vector (1/distance) = 0.28934131
  grid = 18 18 18
  stencil order = 5
  estimated absolute RMS force accuracy = 7.7110449e-05
  estimated relative force accuracy = 5.3550243e-06
  using double precision KISS FFT
  3d grid and FFT values/proc = 15625 5832
Generated 0 of 21 mixed pair_coeff terms from geometric mixing rule
Per MPI rank memory allocation (min/avg/max) = 9.773 | 9.773 | 9.773 Mbytes
   Step          Temp          E_pair         E_mol          TotEng         Press     
        76   7291.6786      2.2348433      0.0055422701   4.1254324      239.67198    
        77   7246.613       2.2515401      5.0656777e-05  4.1249873      214.29636    
Loop time of 0.00267655 on 1 procs for 1 steps with 3 atoms

run 1 pre yes post no
PPPM initialization ...
  using 12-bit tables for long-range coulomb (src/kspace.cpp:342)
  G vector (1/distance) = 0.28934131
  grid = 18 18 18
  stencil order = 5
  estimated absolute RMS force accuracy = 7.7110449e-05
  estimated relative force accuracy = 5.3550243e-06
  using double precision KISS FFT
  3d grid and FFT values/proc = 15625 5832
Generated 0 of 21 mixed pair_coeff terms from geometric mixing rule
Per MPI rank memory allocation (min/avg/max) = 9.773 | 9.773 | 9.773 Mbytes
   Step          Temp          E_pair         E_mol          TotEng         Press     
        77   7246.613       2.2515401      5.0656777e-05  4.1249873      214.29636    
        78   7147.1776      2.2672573      0.0096583356   4.1246061      183.99899    
Loop time of 0.00264647 on 1 procs for 1 steps with 3 atoms

run 1 pre yes post no
PPPM initialization ...
  using 12-bit tables for long-range coulomb (src/kspace.cpp:342)
  G vector (1/distance) = 0.28934131
  grid = 18 18 18
  stencil order = 5
  estimated absolute RMS force accuracy = 7.7110449e-05
  estimated relative force accuracy = 5.3550243e-06
  using double precision KISS FFT
  3d grid and FFT values/proc = 15625 5832
Generated 0 of 21 mixed pair_coeff terms from geometric mixing rule
Per MPI rank memory allocation (min/avg/max) = 9.773 | 9.773 | 9.773 Mbytes
   Step          Temp          E_pair         E_mol          TotEng         Press     
        78   7147.1776      2.2672573      0.0096583356   4.1246061      183.99899    
        79   6973.885       2.2827425      0.038694232    4.1243275      148.9036     
Loop time of 0.00351183 on 1 procs for 1 steps with 3 atoms

run 1 pre yes post no
PPPM initialization ...
  using 12-bit tables for long-range coulomb (src/kspace.cpp:342)
  G vector (1/distance) = 0.28934131
  grid = 18 18 18
  stencil order = 5
  estimated absolute RMS force accuracy = 7.7110449e-05
  estimated relative force accuracy = 5.3550243e-06
  using double precision KISS FFT
  3d grid and FFT values/proc = 15625 5832
Generated 0 of 21 mixed pair_coeff terms from geometric mixing rule
Per MPI rank memory allocation (min/avg/max) = 9.773 | 9.773 | 9.773 Mbytes
   Step          Temp          E_pair         E_mol          TotEng         Press     
        79   6973.885       2.2827425      0.038694232    4.1243275      148.9036     
        80   6713.2386      2.298684       0.08998367     4.124176       109.37025    
Loop time of 0.00302978 on 1 procs for 1 steps with 3 atoms

run 1 pre yes post no
PPPM initialization ...
  using 12-bit tables for long-range coulomb (src/kspace.cpp:342)
  G vector (1/distance) = 0.28934131
  grid = 18 18 18
  stencil order = 5
  estimated absolute RMS force accuracy = 7.7110449e-05
  estimated relative force accuracy = 5.3550243e-06
  using double precision KISS FFT
  3d grid and FFT values/proc = 15625 5832
Generated 0 of 21 mixed pair_coeff terms from geometric mixing rule
Per MPI rank memory allocation (min/avg/max) = 9.773 | 9.773 | 9.773 Mbytes
   Step          Temp          E_pair         E_mol          TotEng         Press     
        80   6713.2386      2.298684       0.08998367     4.124176       109.37025    
        81   6359.2377      2.3156869      0.16448741     4.1241663      66.026549    
Loop time of 0.00357844 on 1 procs for 1 steps with 3 atoms

run 1 pre yes post no
PPPM initialization ...
  using 12-bit tables for long-range coulomb (src/kspace.cpp:342)
  G vector (1/distance) = 0.28934131
  grid = 18 18 18
  stencil order = 5
  estimated absolute RMS force accuracy = 7.7110449e-05
  estimated relative force accuracy = 5.3550243e-06
  using double precision KISS FFT
  3d grid and FFT values/proc = 15625 5832
Generated 0 of 21 mixed pair_coeff terms from geometric mixing rule
Per MPI rank memory allocation (min/avg/max) = 9.773 | 9.773 | 9.773 Mbytes
   Step          Temp          E_pair         E_mol          TotEng         Press     
        81   6359.2377      2.3156869      0.16448741     4.1241663      66.026549    
        82   5914.1766      2.3342484      0.26111721     4.1243002      19.775844    
Loop time of 0.00395594 on 1 procs for 1 steps with 3 atoms

run 1 pre yes post no
PPPM initialization ...
  using 12-bit tables for long-range coulomb (src/kspace.cpp:342)
  G vector (1/distance) = 0.28934131
  grid = 18 18 18
  stencil order = 5
  estimated absolute RMS force accuracy = 7.7110449e-05
  estimated relative force accuracy = 5.3550243e-06
  using double precision KISS FFT
  3d grid and FFT values/proc = 15625 5832
Generated 0 of 21 mixed pair_coeff terms from geometric mixing rule
Per MPI rank memory allocation (min/avg/max) = 9.773 | 9.773 | 9.773 Mbytes
   Step          Temp          E_pair         E_mol          TotEng         Press     
        82   5914.1766      2.3342484      0.26111721     4.1243002      19.775844    
        83   5388.6976      2.3547411      0.37673706     4.1245658     -28.218029    
Loop time of 0.00314677 on 1 procs for 1 steps with 3 atoms

run 1 pre yes post no
PPPM initialization ...
  using 12-bit tables for long-range coulomb (src/kspace.cpp:342)
  G vector (1/distance) = 0.28934131
  grid = 18 18 18
  stencil order = 5
  estimated absolute RMS force accuracy = 7.7110449e-05
  estimated relative force accuracy = 5.3550243e-06
  using double precision KISS FFT
  3d grid and FFT values/proc = 15625 5832
Generated 0 of 21 mixed pair_coeff terms from geometric mixing rule
Per MPI rank memory allocation (min/avg/max) = 9.773 | 9.773 | 9.773 Mbytes
   Step          Temp          E_pair         E_mol          TotEng         Press     
        83   5388.6976      2.3547411      0.37673706     4.1245658     -28.218029    
        84   4801.1166      2.3774111      0.50634438     4.1249415     -76.568994    
Loop time of 0.00299378 on 1 procs for 1 steps with 3 atoms

run 1 pre yes post no
PPPM initialization ...
  using 12-bit tables for long-range coulomb (src/kspace.cpp:342)
  G vector (1/distance) = 0.28934131
  grid = 18 18 18
  stencil order = 5
  estimated absolute RMS force accuracy = 7.7110449e-05
  estimated relative force accuracy = 5.3550243e-06
  using double precision KISS FFT
  3d grid and FFT values/proc = 15625 5832
Generated 0 of 21 mixed pair_coeff terms from geometric mixing rule
Per MPI rank memory allocation (min/avg/max) = 9.773 | 9.773 | 9.773 Mbytes
   Step          Temp          E_pair         E_mol          TotEng         Press     
        84   4801.1166      2.3774111      0.50634438     4.1249415     -76.568994    
        85   4176.0966      2.4023789      0.64341146     4.1253961     -123.7273     
Loop time of 0.00289311 on 1 procs for 1 steps with 3 atoms

run 1 pre yes post no
PPPM initialization ...
  using 12-bit tables for long-range coulomb (src/kspace.cpp:342)
  G vector (1/distance) = 0.28934131
  grid = 18 18 18
  stencil order = 5
  estimated absolute RMS force accuracy = 7.7110449e-05
  estimated relative force accuracy = 5.3550243e-06
  using double precision KISS FFT
  3d grid and FFT values/proc = 15625 5832
Generated 0 of 21 mixed pair_coeff terms from geometric mixing rule
Per MPI rank memory allocation (min/avg/max) = 9.773 | 9.773 | 9.773 Mbytes
   Step          Temp          E_pair         E_mol          TotEng         Press     
        85   4176.0966      2.4023789      0.64341146     4.1253961     -123.7273     
        86   3542.7912      2.4296537      0.78035677     4.1258938     -168.05418    
Loop time of 0.00280452 on 1 procs for 1 steps with 3 atoms

run 1 pre yes post no
PPPM initialization ...
  using 12-bit tables for long-range coulomb (src/kspace.cpp:342)
  G vector (1/distance) = 0.28934131
  grid = 18 18 18
  stencil order = 5
  estimated absolute RMS force accuracy = 7.7110449e-05
  estimated relative force accuracy = 5.3550243e-06
  using double precision KISS FFT
  3d grid and FFT values/proc = 15625 5832
Generated 0 of 21 mixed pair_coeff terms from geometric mixing rule
Per MPI rank memory allocation (min/avg/max) = 9.773 | 9.773 | 9.773 Mbytes
   Step          Temp          E_pair         E_mol          TotEng         Press     
        86   3542.7912      2.4296537      0.78035677     4.1258938     -168.05418    
        87   2932.6161      2.4591463      0.9091066      4.1263936     -207.90759    
Loop time of 0.00357862 on 1 procs for 1 steps with 3 atoms

run 1 pre yes post no
PPPM initialization ...
  using 12-bit tables for long-range coulomb (src/kspace.cpp:342)
  G vector (1/distance) = 0.28934131
  grid = 18 18 18
  stencil order = 5
  estimated absolute RMS force accuracy = 7.7110449e-05
  estimated relative force accuracy = 5.3550243e-06
  using double precision KISS FFT
  3d grid and FFT values/proc = 15625 5832
Generated 0 of 21 mixed pair_coeff terms from geometric mixing rule
Per MPI rank memory allocation (min/avg/max) = 9.773 | 9.773 | 9.773 Mbytes
   Step          Temp          E_pair         E_mol          TotEng         Press     
        87   2932.6161      2.4591463      0.9091066      4.1263936     -207.90759    
        88   2376.83        2.4906934      1.0217023      4.1268545     -241.73247    
Loop time of 0.0026901 on 1 procs for 1 steps with 3 atoms

run 1 pre yes post no
PPPM initialization ...
  using 12-bit tables for long-range coulomb (src/kspace.cpp:342)
  G vector (1/distance) = 0.28934131
  grid = 18 18 18
  stencil order = 5
  estimated absolute RMS force accuracy = 7.7110449e-05
  estimated relative force accuracy = 5.3550243e-06
  using double precision KISS FFT
  3d grid and FFT values/proc = 15625 5832
Generated 0 of 21 mixed pair_coeff terms from geometric mixing rule
Per MPI rank memory allocation (min/avg/max) = 9.773 | 9.773 | 9.773 Mbytes
   Step          Temp          E_pair         E_mol          TotEng         Press     
        88   2376.83        2.4906934      1.0217023      4.1268545     -241.73247    
        89   1904.1168      2.5240821      1.1109057      4.1272406     -268.14929    
Loop time of 0.00249966 on 1 procs for 1 steps with 3 atoms

run 1 pre yes post no
PPPM initialization ...
  using 12-bit tables for long-range coulomb (src/kspace.cpp:342)
  G vector (1/distance) = 0.28934131
  grid = 18 18 18
  stencil order = 5
  estimated absolute RMS force accuracy = 7.7110449e-05
  estimated relative force accuracy = 5.3550243e-06
  using double precision KISS FFT
  3d grid and FFT values/proc = 15625 5832
Generated 0 of 21 mixed pair_coeff terms from geometric mixing rule
Per MPI rank memory allocation (min/avg/max) = 9.773 | 9.773 | 9.773 Mbytes
   Step          Temp          E_pair         E_mol          TotEng         Press     
        89   1904.1168      2.5240821      1.1109057      4.1272406     -268.14929    
        90   1538.3564      2.5590678      1.1707563      4.1275204     -286.03487    
Loop time of 0.00104582 on 1 procs for 1 steps with 3 atoms

run 1 pre yes post no
PPPM initialization ...
  using 12-bit tables for long-range coulomb (src/kspace.cpp:342)
  G vector (1/distance) = 0.28934131
  grid = 18 18 18
  stencil order = 5
  estimated absolute RMS force accuracy = 7.7110449e-05
  estimated relative force accuracy = 5.3550243e-06
  using double precision KISS FFT
  3d grid and FFT values/proc = 15625 5832
Generated 0 of 21 mixed pair_coeff terms from geometric mixing rule
Per MPI rank memory allocation (min/avg/max) = 9.773 | 9.773 | 9.773 Mbytes
   Step          Temp          E_pair         E_mol          TotEng         Press     
        90   1538.3564      2.5590678      1.1707563      4.1275204     -286.03487    
        91   1296.7526      2.5953953      1.1970388      4.1276709     -294.58942    
Loop time of 0.00104669 on 1 procs for 1 steps with 3 atoms

run 1 pre yes post no
PPPM initialization ...
  using 12-bit tables for long-range coulomb (src/kspace.cpp:342)
  G vector (1/distance) = 0.28934131
  grid = 18 18 18
  stencil order = 5
  estimated absolute RMS force accuracy = 7.7110449e-05
  estimated relative force accuracy = 5.3550243e-06
  using double precision KISS FFT
  3d grid and FFT values/proc = 15625 5832
Generated 0 of 21 mixed pair_coeff terms from geometric mixing rule
Per MPI rank memory allocation (min/avg/max) = 9.773 | 9.773 | 9.773 Mbytes
   Step          Temp          E_pair         E_mol          TotEng         Press     
        91   1296.7526      2.5953953      1.1970388      4.1276709     -294.58942    
        92   1188.4601      2.6328142      1.1876248      4.12768       -293.38517    
Loop time of 0.00105381 on 1 procs for 1 steps with 3 atoms

run 1 pre yes post no
PPPM initialization ...
  using 12-bit tables for long-range coulomb (src/kspace.cpp:342)
  G vector (1/distance) = 0.28934131
  grid = 18 18 18
  stencil order = 5
  estimated absolute RMS force accuracy = 7.7110449e-05
  estimated relative force accuracy = 5.3550243e-06
  using double precision KISS FFT
  3d grid and FFT values/proc = 15625 5832
Generated 0 of 21 mixed pair_coeff terms from geometric mixing rule
Per MPI rank memory allocation (min/avg/max) = 9.773 | 9.773 | 9.773 Mbytes
   Step          Temp          E_pair         E_mol          TotEng         Press     
        92   1188.4601      2.6328142      1.1876248      4.12768       -293.38517    
        93   1213.8079      2.6710859      1.1426644      4.1275442     -282.39356    
Loop time of 0.00106483 on 1 procs for 1 steps with 3 atoms

run 1 pre yes post no
PPPM initialization ...
  using 12-bit tables for long-range coulomb (src/kspace.cpp:342)
  G vector (1/distance) = 0.28934131
  grid = 18 18 18
  stencil order = 5
  estimated absolute RMS force accuracy = 7.7110449e-05
  estimated relative force accuracy = 5.3550243e-06
  using double precision KISS FFT
  3d grid and FFT values/proc = 15625 5832
Generated 0 of 21 mixed pair_coeff terms from geometric mixing rule
Per MPI rank memory allocation (min/avg/max) = 9.773 | 9.773 | 9.773 Mbytes
   Step          Temp          E_pair         E_mol          TotEng         Press     
        93   1213.8079      2.6710859      1.1426644      4.1275442     -282.39356    
        94   1364.1778      2.7099914      1.0646132      4.1272722     -261.98859    
Loop time of 0.00108742 on 1 procs for 1 steps with 3 atoms

run 1 pre yes post no
PPPM initialization ...
  using 12-bit tables for long-range coulomb (src/kspace.cpp:342)
  G vector (1/distance) = 0.28934131
  grid = 18 18 18
  stencil order = 5
  estimated absolute RMS force accuracy = 7.7110449e-05
  estimated relative force accuracy = 5.3550243e-06
  using double precision KISS FFT
  3d grid and FFT values/proc = 15625 5832
Generated 0 of 21 mixed pair_coeff terms from geometric mixing rule
Per MPI rank memory allocation (min/avg/max) = 9.773 | 9.773 | 9.773 Mbytes
   Step          Temp          E_pair         E_mol          TotEng         Press     
        94   1364.1778      2.7099914      1.0646132      4.1272722     -261.98859    
        95   1622.5404      2.7493314      0.95809215     4.1268831     -232.92644    
Loop time of 0.00107344 on 1 procs for 1 steps with 3 atoms

run 1 pre yes post no
PPPM initialization ...
  using 12-bit tables for long-range coulomb (src/kspace.cpp:342)
  G vector (1/distance) = 0.28934131
  grid = 18 18 18
  stencil order = 5
  estimated absolute RMS force accuracy = 7.7110449e-05
  estimated relative force accuracy = 5.3550243e-06
  using double precision KISS FFT
  3d grid and FFT values/proc = 15625 5832
Generated 0 of 21 mixed pair_coeff terms from geometric mixing rule
Per MPI rank memory allocation (min/avg/max) = 9.773 | 9.773 | 9.773 Mbytes
   Step          Temp          E_pair         E_mol          TotEng         Press     
        95   1622.5404      2.7493314      0.95809215     4.1268831     -232.92644    
        96   1964.6101      2.7889211      0.82959141     4.1264041     -196.30293    
Loop time of 0.00107442 on 1 procs for 1 steps with 3 atoms

run 1 pre yes post no
PPPM initialization ...
  using 12-bit tables for long-range coulomb (src/kspace.cpp:342)
  G vector (1/distance) = 0.28934131
  grid = 18 18 18
  stencil order = 5
  estimated absolute RMS force accuracy = 7.7110449e-05
  estimated relative force accuracy = 5.3550243e-06
  using double precision KISS FFT
  3d grid and FFT values/proc = 15625 5832
Generated 0 of 21 mixed pair_coeff terms from geometric mixing rule
Per MPI rank memory allocation (min/avg/max) = 9.773 | 9.773 | 9.773 Mbytes
   Step          Temp          E_pair         E_mol          TotEng         Press     
        96   1964.6101      2.7889211      0.82959141     4.1264041     -196.30293    
        97   2360.5291      2.8285857      0.6870384      4.1258688     -153.49123    
Loop time of 0.00107684 on 1 procs for 1 steps with 3 atoms

run 1 pre yes post no
PPPM initialization ...
  using 12-bit tables for long-range coulomb (src/kspace.cpp:342)
  G vector (1/distance) = 0.28934131
  grid = 18 18 18
  stencil order = 5
  estimated absolute RMS force accuracy = 7.7110449e-05
  estimated relative force accuracy = 5.3550243e-06
  using double precision KISS FFT
  3d grid and FFT values/proc = 15625 5832
Generated 0 of 21 mixed pair_coeff terms from geometric mixing rule
Per MPI rank memory allocation (min/avg/max) = 9.773 | 9.773 | 9.773 Mbytes
   Step          Temp          E_pair         E_mol          TotEng         Press     
        97   2360.5291      2.8285857      0.6870384      4.1258688     -153.49123    
        98   2776.9579      2.8681541      0.53926235     4.1253164     -106.06454    
Loop time of 0.00106107 on 1 procs for 1 steps with 3 atoms

run 1 pre yes post no
PPPM initialization ...
  using 12-bit tables for long-range coulomb (src/kspace.cpp:342)
  G vector (1/distance) = 0.28934131
  grid = 18 18 18
  stencil order = 5
  estimated absolute RMS force accuracy = 7.7110449e-05
  estimated relative force accuracy = 5.3550243e-06
  using double precision KISS FFT
  3d grid and FFT values/proc = 15625 5832
Generated 0 of 21 mixed pair_coeff terms from geometric mixing rule
Per MPI rank memory allocation (min/avg/max) = 9.773 | 9.773 | 9.773 Mbytes
   Step          Temp          E_pair         E_mol          TotEng         Press     
        98   2776.9579      2.8681541      0.53926235     4.1253164     -106.06454    
        99   3179.4195      2.9074472      0.39539307     4.1247847     -55.708869    
Loop time of 0.00105638 on 1 procs for 1 steps with 3 atoms

run 1 pre yes post no
PPPM initialization ...
  using 12-bit tables for long-range coulomb (src/kspace.cpp:342)
  G vector (1/distance) = 0.28934131
  grid = 18 18 18
  stencil order = 5
  estimated absolute RMS force accuracy = 7.7110449e-05
  estimated relative force accuracy = 5.3550243e-06
  using double precision KISS FFT
  3d grid and FFT values/proc = 15625 5832
Generated 0 of 21 mixed pair_coeff terms from geometric mixing rule
Per MPI rank memory allocation (min/avg/max) = 9.773 | 9.773 | 9.773 Mbytes
   Step          Temp          E_pair         E_mol          TotEng         Press     
        99   3179.4195      2.9074472      0.39539307     4.1247847     -55.708869    
       100   3534.726       2.946277       0.26423742     4.1243128     -4.1312955    
Loop time of 0.00105872 on 1 procs for 1 steps with 3 atoms

run 1 pre yes post no
PPPM initialization ...
  using 12-bit tables for long-range coulomb (src/kspace.cpp:342)
  G vector (1/distance) = 0.28934131
  grid = 18 18 18
  stencil order = 5
  estimated absolute RMS force accuracy = 7.7110449e-05
  estimated relative force accuracy = 5.3550243e-06
  using double precision KISS FFT
  3d grid and FFT values/proc = 15625 5832
Generated 0 of 21 mixed pair_coeff terms from geometric mixing rule
Per MPI rank memory allocation (min/avg/max) = 9.773 | 9.773 | 9.773 Mbytes
   Step          Temp          E_pair         E_mol          TotEng         Press     
       100   3534.726       2.946277       0.26423742     4.1243128     -4.1312955    
       101   3813.3145      2.984437       0.15367778     4.1239339      47.029381    
Loop time of 0.00110913 on 1 procs for 1 steps with 3 atoms

run 1 pre yes post no
PPPM initialization ...
  using 12-bit tables for long-range coulomb (src/kspace.cpp:342)
  G vector (1/distance) = 0.28934131
  grid = 18 18 18
  stencil order = 5
  estimated absolute RMS force accuracy = 7.7110449e-05
  estimated relative force accuracy = 5.3550243e-06
  using double precision KISS FFT
  3d grid and FFT values/proc = 15625 5832
Generated 0 of 21 mixed pair_coeff terms from geometric mixing rule
Per MPI rank memory allocation (min/avg/max) = 9.773 | 9.773 | 9.773 Mbytes
   Step          Temp          E_pair         E_mol          TotEng         Press     
       101   3813.3145      2.984437       0.15367778     4.1239339      47.029381    
       102   3991.3245      3.0217019      0.070135502    4.1236758      96.284693    
Loop time of 0.00109363 on 1 procs for 1 steps with 3 atoms

run 1 pre yes post no
PPPM initialization ...
  using 12-bit tables for long-range coulomb (src/kspace.cpp:342)
  G vector (1/distance) = 0.28934131
  grid = 18 18 18
  stencil order = 5
  estimated absolute RMS force accuracy = 7.7110449e-05
  estimated relative force accuracy = 5.3550243e-06
  using double precision KISS FFT
  3d grid and FFT values/proc = 15625 5832
Generated 0 of 21 mixed pair_coeff terms from geometric mixing rule
Per MPI rank memory allocation (min/avg/max) = 9.773 | 9.773 | 9.773 Mbytes
   Step          Temp          E_pair         E_mol          TotEng         Press     
       102   3991.3245      3.0217019      0.070135502    4.1236758      96.284693    
       103   4052.2703      3.0578234      0.018137203    4.1235547      142.36531    
Loop time of 0.00107443 on 1 procs for 1 steps with 3 atoms

run 1 pre yes post no
PPPM initialization ...
  using 12-bit tables for long-range coulomb (src/kspace.cpp:342)
  G vector (1/distance) = 0.28934131
  grid = 18 18 18
  stencil order = 5
  estimated absolute RMS force accuracy = 7.7110449e-05
  estimated relative force accuracy = 5.3550243e-06
  using double precision KISS FFT
  3d grid and FFT values/proc = 15625 5832
Generated 0 of 21 mixed pair_coeff terms from geometric mixing rule
Per MPI rank memory allocation (min/avg/max) = 9.773 | 9.773 | 9.773 Mbytes
   Step          Temp          E_pair         E_mol          TotEng         Press     
       103   4052.2703      3.0578234      0.018137203    4.1235547      142.36531    
       104   3988.1894      3.0925414      1.442838e-05   4.1235837      184.2732     
Loop time of 0.00106923 on 1 procs for 1 steps with 3 atoms

run 1 pre yes post no
PPPM initialization ...
  using 12-bit tables for long-range coulomb (src/kspace.cpp:342)
  G vector (1/distance) = 0.28934131
  grid = 18 18 18
  stencil order = 5
  estimated absolute RMS force accuracy = 7.7110449e-05
  estimated relative force accuracy = 5.3550243e-06
  using double precision KISS FFT
  3d grid and FFT values/proc = 15625 5832
Generated 0 of 21 mixed pair_coeff terms from geometric mixing rule
Per MPI rank memory allocation (min/avg/max) = 9.773 | 9.773 | 9.773 Mbytes
   Step          Temp          E_pair         E_mol          TotEng         Press     
       104   3988.1894      3.0925414      1.442838e-05   4.1235837      184.2732     
       105   3800.1903      3.1255733      0.015757658    4.1237573      221.31286    
Loop time of 0.00105621 on 1 procs for 1 steps with 3 atoms

run 1 pre yes post no
PPPM initialization ...
  using 12-bit tables for long-range coulomb (src/kspace.cpp:342)
  G vector (1/distance) = 0.28934131
  grid = 18 18 18
  stencil order = 5
  estimated absolute RMS force accuracy = 7.7110449e-05
  estimated relative force accuracy = 5.3550243e-06
  using double precision KISS FFT
  3d grid and FFT values/proc = 15625 5832
Generated 0 of 21 mixed pair_coeff terms from geometric mixing rule
Per MPI rank memory allocation (min/avg/max) = 9.773 | 9.773 | 9.773 Mbytes
   Step          Temp          E_pair         E_mol          TotEng         Press     
       105   3800.1903      3.1255733      0.015757658    4.1237573      221.31286    
       106   3498.3597      3.1566336      0.063034442    4.124065       253.10192    
Loop time of 0.00106229 on 1 procs for 1 steps with 3 atoms

run 1 pre yes post no
PPPM initialization ...
  using 12-bit tables for long-range coulomb (src/kspace.cpp:342)
  G vector (1/distance) = 0.28934131
  grid = 18 18 18
  stencil order = 5
  estimated absolute RMS force accuracy = 7.7110449e-05
  estimated relative force accuracy = 5.3550243e-06
  using double precision KISS FFT
  3d grid and FFT values/proc = 15625 5832
Generated 0 of 21 mixed pair_coeff terms from geometric mixing rule
Per MPI rank memory allocation (min/avg/max) = 9.773 | 9.773 | 9.773 Mbytes
   Step          Temp          E_pair         E_mol          TotEng         Press     
       106   3498.3597      3.1566336      0.063034442    4.124065       253.10192    
       107   3101.0424      3.1854344      0.13736989     4.1244867      279.55951    
Loop time of 0.00106748 on 1 procs for 1 steps with 3 atoms

run 1 pre yes post no
PPPM initialization ...
  using 12-bit tables for long-range coulomb (src/kspace.cpp:342)
  G vector (1/distance) = 0.28934131
  grid = 18 18 18
  stencil order = 5
  estimated absolute RMS force accuracy = 7.7110449e-05
  estimated relative force accuracy = 5.3550243e-06
  using double precision KISS FFT
  3d grid and FFT values/proc = 15625 5832
Generated 0 of 21 mixed pair_coeff terms from geometric mixing rule
Per MPI rank memory allocation (min/avg/max) = 9.773 | 9.773 | 9.773 Mbytes
   Step          Temp          E_pair         E_mol          TotEng         Press     
       107   3101.0424      3.1854344      0.13736989     4.1244867      279.55951    
       108   2633.5431      3.2116903      0.23247618     4.1249908      300.87469    
Loop time of 0.0011151 on 1 procs for 1 steps with 3 atoms

run 1 pre yes post no
PPPM initialization ...
  using 12-bit tables for long-range coulomb (src/kspace.cpp:342)
  G vector (1/distance) = 0.28934131
  grid = 18 18 18
  stencil order = 5
  estimated absolute RMS force accuracy = 7.7110449e-05
  estimated relative force accuracy = 5.3550243e-06
  using double precision KISS FFT
  3d grid and FFT values/proc = 15625 5832
Generated 0 of 21 mixed pair_coeff terms from geometric mixing rule
Per MPI rank memory allocation (min/avg/max) = 9.773 | 9.773 | 9.773 Mbytes
   Step          Temp          E_pair         E_mol          TotEng         Press     
       108   2633.5431      3.2116903      0.23247618     4.1249908      300.87469    
       109   2126.3478      3.2351322      0.34070741     4.1255436      317.45809    
Loop time of 0.0012968 on 1 procs for 1 steps with 3 atoms

run 1 pre yes post no
PPPM initialization ...
  using 12-bit tables for long-range coulomb (src/kspace.cpp:342)
  G vector (1/distance) = 0.28934131
  grid = 18 18 18
  stencil order = 5
  estimated absolute RMS force accuracy = 7.7110449e-05
  estimated relative force accuracy = 5.3550243e-06
  using double precision KISS FFT
  3d grid and FFT values/proc = 15625 5832
Generated 0 of 21 mixed pair_coeff terms from geometric mixing rule
Per MPI rank memory allocation (min/avg/max) = 9.773 | 9.773 | 9.773 Mbytes
   Step          Temp          E_pair         E_mol          TotEng         Press     
       109   2126.3478      3.2351322      0.34070741     4.1255436      317.45809    
       110   1612.9871      3.2555099      0.45360723     4.126107       329.88018    
Loop time of 0.0011437 on 1 procs for 1 steps with 3 atoms

run 1 pre yes post no
PPPM initialization ...
  using 12-bit tables for long-range coulomb (src/kspace.cpp:342)
  G vector (1/distance) = 0.28934131
  grid = 18 18 18
  stencil order = 5
  estimated absolute RMS force accuracy = 7.7110449e-05
  estimated relative force accuracy = 5.3550243e-06
  using double precision KISS FFT
  3d grid and FFT values/proc = 15625 5832
Generated 0 of 21 mixed pair_coeff terms from geometric mixing rule
Per MPI rank memory allocation (min/avg/max) = 9.773 | 9.773 | 9.773 Mbytes
   Step          Temp          E_pair         E_mol          TotEng         Press     
       110   1612.9871      3.2555099      0.45360723     4.126107       329.88018    
       111   1127.6961      3.2725986      0.56251067     4.1266416      338.80153    
Loop time of 0.00108169 on 1 procs for 1 steps with 3 atoms

run 1 pre yes post no
PPPM initialization ...
  using 12-bit tables for long-range coulomb (src/kspace.cpp:342)
  G vector (1/distance) = 0.28934131
  grid = 18 18 18
  stencil order = 5
  estimated absolute RMS force accuracy = 7.7110449e-05
  estimated relative force accuracy = 5.3550243e-06
  using double precision KISS FFT
  3d grid and FFT values/proc = 15625 5832
Generated 0 of 21 mixed pair_coeff terms from geometric mixing rule
Per MPI rank memory allocation (min/avg/max) = 9.773 | 9.773 | 9.773 Mbytes
   Step          Temp          E_pair         E_mol          TotEng         Press     
       111   1127.6961      3.2725986      0.56251067     4.1266416      338.80153    
       112   703.0298       3.2862055      0.65915784     4.1271108      344.90045    
Loop time of 0.00113122 on 1 procs for 1 steps with 3 atoms

run 1 pre yes post no
PPPM initialization ...
  using 12-bit tables for long-range coulomb (src/kspace.cpp:342)
  G vector (1/distance) = 0.28934131
  grid = 18 18 18
  stencil order = 5
  estimated absolute RMS force accuracy = 7.7110449e-05
  estimated relative force accuracy = 5.3550243e-06
  using double precision KISS FFT
  3d grid and FFT values/proc = 15625 5832
Generated 0 of 21 mixed pair_coeff terms from geometric mixing rule
Per MPI rank memory allocation (min/avg/max) = 9.773 | 9.773 | 9.773 Mbytes
   Step          Temp          E_pair         E_mol          TotEng         Press     
       112   703.0298       3.2862055      0.65915784     4.1271108      344.90045    
       113   367.60314      3.2961737      0.73627678     4.1274833      348.80331    
Loop time of 0.00105679 on 1 procs for 1 steps with 3 atoms

run 1 pre yes post no
PPPM initialization ...
  using 12-bit tables for long-range coulomb (src/kspace.cpp:342)
  G vector (1/distance) = 0.28934131
  grid = 18 18 18
  stencil order = 5
  estimated absolute RMS force accuracy = 7.7110449e-05
  estimated relative force accuracy = 5.3550243e-06
  using double precision KISS FFT
  3d grid and FFT values/proc = 15625 5832
Generated 0 of 21 mixed pair_coeff terms from geometric mixing rule
Per MPI rank memory allocation (min/avg/max) = 9.773 | 9.773 | 9.773 Mbytes
   Step          Temp          E_pair         E_mol          TotEng         Press     
       113   367.60314      3.2961737      0.73627678     4.1274833      348.80331    
       114   144.1075       3.302383       0.78809507     4.1277328      351.02281    
Loop time of 0.00106209 on 1 procs for 1 steps with 3 atoms

run 1 pre yes post no
PPPM initialization ...
  using 12-bit tables for long-range coulomb (src/kspace.cpp:342)
  G vector (1/distance) = 0.28934131
  grid = 18 18 18
  stencil order = 5
  estimated absolute RMS force accuracy = 7.7110449e-05
  estimated relative force accuracy = 5.3550243e-06
  using double precision KISS FFT
  3d grid and FFT values/proc = 15625 5832
Generated 0 of 21 mixed pair_coeff terms from geometric mixing rule
Per MPI rank memory allocation (min/avg/max) = 9.773 | 9.773 | 9.773 Mbytes
   Step          Temp          E_pair         E_mol          TotEng         Press     
       114   144.1075       3.302383       0.78809507     4.1277328      351.02281    
       115   47.740609      3.3047546      0.81074532     4.1278419      351.90888    
Loop time of 0.00108135 on 1 procs for 1 steps with 3 atoms

run 1 pre yes post no
PPPM initialization ...
  using 12-bit tables for long-range coulomb (src/kspace.cpp:342)
  G vector (1/distance) = 0.28934131
  grid = 18 18 18
  stencil order = 5
  estimated absolute RMS force accuracy = 7.7110449e-05
  estimated relative force accuracy = 5.3550243e-06
  using double precision KISS FFT
  3d grid and FFT values/proc = 15625 5832
Generated 0 of 21 mixed pair_coeff terms from geometric mixing rule
Per MPI rank memory allocation (min/avg/max) = 9.773 | 9.773 | 9.773 Mbytes
   Step          Temp          E_pair         E_mol          TotEng         Press     
       115   47.740609      3.3047546      0.81074532     4.1278419      351.90888    
       116   85.155297      3.3032517      0.80253661     4.1278027      351.61572    
Loop time of 0.00105946 on 1 procs for 1 steps with 3 atoms

run 1 pre yes post no
PPPM initialization ...
  using 12-bit tables for long-range coulomb (src/kspace.cpp:342)
  G vector (1/distance) = 0.28934131
  grid = 18 18 18
  stencil order = 5
  estimated absolute RMS force accuracy = 7.7110449e-05
  estimated relative force accuracy = 5.3550243e-06
  using double precision KISS FFT
  3d grid and FFT values/proc = 15625 5832
Generated 0 of 21 mixed pair_coeff terms from geometric mixing rule
Per MPI rank memory allocation (min/avg/max) = 9.773 | 9.773 | 9.773 Mbytes
   Step          Temp          E_pair         E_mol          TotEng         Press     
       116   85.155297      3.3032517      0.80253661     4.1278027      351.61572    
       117   253.99808      3.2978826      0.76407366     4.1276199      350.0873     
Loop time of 0.00106586 on 1 procs for 1 steps with 3 atoms

run 1 pre yes post no
PPPM initialization ...
  using 12-bit tables for long-range coulomb (src/kspace.cpp:342)
  G vector (1/distance) = 0.28934131
  grid = 18 18 18
  stencil order = 5
  estimated absolute RMS force accuracy = 7.7110449e-05
  estimated relative force accuracy = 5.3550243e-06
  using double precision KISS FFT
  3d grid and FFT values/proc = 15625 5832
Generated 0 of 21 mixed pair_coeff terms from geometric mixing rule
Per MPI rank memory allocation (min/avg/max) = 9.773 | 9.773 | 9.773 Mbytes
   Step          Temp          E_pair         E_mol          TotEng         Press     
       117   253.99808      3.2978826      0.76407366     4.1276199      350.0873     
       118   543.06869      3.2886934      0.69821545     4.1273031      347.06219    
Loop time of 0.00106592 on 1 procs for 1 steps with 3 atoms

run 1 pre yes post no
PPPM initialization ...
  using 12-bit tables for long-range coulomb (src/kspace.cpp:342)
  G vector (1/distance) = 0.28934131
  grid = 18 18 18
  stencil order = 5
  estimated absolute RMS force accuracy = 7.7110449e-05
  estimated relative force accuracy = 5.3550243e-06
  using double precision KISS FFT
  3d grid and FFT values/proc = 15625 5832
Generated 0 of 21 mixed pair_coeff terms from geometric mixing rule
Per MPI rank memory allocation (min/avg/max) = 9.773 | 9.773 | 9.773 Mbytes
   Step          Temp          E_pair         E_mol          TotEng         Press     
       118   543.06869      3.2886934      0.69821545     4.1273031      347.06219    
       119   933.09014      3.2757771      0.60987617     4.126876       342.0982     
Loop time of 0.00109992 on 1 procs for 1 steps with 3 atoms

run 1 pre yes post no
PPPM initialization ...
  using 12-bit tables for long-range coulomb (src/kspace.cpp:342)
  G vector (1/distance) = 0.28934131
  grid = 18 18 18
  stencil order = 5
  estimated absolute RMS force accuracy = 7.7110449e-05
  estimated relative force accuracy = 5.3550243e-06
  using double precision KISS FFT
  3d grid and FFT values/proc = 15625 5832
Generated 0 of 21 mixed pair_coeff terms from geometric mixing rule
Per MPI rank memory allocation (min/avg/max) = 9.773 | 9.773 | 9.773 Mbytes
   Step          Temp          E_pair         E_mol          TotEng         Press     
       119   933.09014      3.2757771      0.60987617     4.126876       342.0982     
       120   1398.038       3.2592644      0.50568166     4.1263673      334.61388    
Loop time of 0.00113103 on 1 procs for 1 steps with 3 atoms

run 1 pre yes post no
PPPM initialization ...
  using 12-bit tables for long-range coulomb (src/kspace.cpp:342)
  G vector (1/distance) = 0.28934131
  grid = 18 18 18
  stencil order = 5
  estimated absolute RMS force accuracy = 7.7110449e-05
  estimated relative force accuracy = 5.3550243e-06
  using double precision KISS FFT
  3d grid and FFT values/proc = 15625 5832
Generated 0 of 21 mixed pair_coeff terms from geometric mixing rule
Per MPI rank memory allocation (min/avg/max) = 9.773 | 9.773 | 9.773 Mbytes
   Step          Temp          E_pair         E_mol          TotEng         Press     
       120   1398.038       3.2592644      0.50568166     4.1263673      334.61388    
       121   1906.9394      3.2393238      0.39350488     4.1258112      323.94476    
Loop time of 0.00110103 on 1 procs for 1 steps with 3 atoms

run 1 pre yes post no
PPPM initialization ...
  using 12-bit tables for long-range coulomb (src/kspace.cpp:342)
  G vector (1/distance) = 0.28934131
  grid = 18 18 18
  stencil order = 5
  estimated absolute RMS force accuracy = 7.7110449e-05
  estimated relative force accuracy = 5.3550243e-06
  using double precision KISS FFT
  3d grid and FFT values/proc = 15625 5832
Generated 0 of 21 mixed pair_coeff terms from geometric mixing rule
Per MPI rank memory allocation (min/avg/max) = 9.773 | 9.773 | 9.773 Mbytes
   Step          Temp          E_pair         E_mol          TotEng         Press     
       121   1906.9394      3.2393238      0.39350488     4.1258112      323.94476    
       122   2426.0198      3.2161595      0.28191196     4.1252468      309.4099     
Loop time of 0.00108332 on 1 procs for 1 steps with 3 atoms

run 1 pre yes post no
PPPM initialization ...
  using 12-bit tables for long-range coulomb (src/kspace.cpp:342)
  G vector (1/distance) = 0.28934131
  grid = 18 18 18
  stencil order = 5
  estimated absolute RMS force accuracy = 7.7110449e-05
  estimated relative force accuracy = 5.3550243e-06
  using double precision KISS FFT
  3d grid and FFT values/proc = 15625 5832
Generated 0 of 21 mixed pair_coeff terms from geometric mixing rule
Per MPI rank memory allocation (min/avg/max) = 9.773 | 9.773 | 9.773 Mbytes
   Step          Temp          E_pair         E_mol          TotEng         Press     
       122   2426.0198      3.2161595      0.28191196     4.1252468      309.4099     
       123   2921.051       3.1900053      0.17955706     4.1247134      290.38382    
Loop time of 0.00109223 on 1 procs for 1 steps with 3 atoms

run 1 pre yes post no
PPPM initialization ...
  using 12-bit tables for long-range coulomb (src/kspace.cpp:342)
  G vector (1/distance) = 0.28934131
  grid = 18 18 18
  stencil order = 5
  estimated absolute RMS force accuracy = 7.7110449e-05
  estimated relative force accuracy = 5.3550243e-06
  using double precision KISS FFT
  3d grid and FFT values/proc = 15625 5832
Generated 0 of 21 mixed pair_coeff terms from geometric mixing rule
Per MPI rank memory allocation (min/avg/max) = 9.773 | 9.773 | 9.773 Mbytes
   Step          Temp          E_pair         E_mol          TotEng         Press     
       123   2921.051       3.1900053      0.17955706     4.1247134      290.38382    
       124   3359.7379      3.1611189      0.094568055    4.1242474      266.36827    
Loop time of 0.00108615 on 1 procs for 1 steps with 3 atoms

run 1 pre yes post no
PPPM initialization ...
  using 12-bit tables for long-range coulomb (src/kspace.cpp:342)
  G vector (1/distance) = 0.28934131
  grid = 18 18 18
  stencil order = 5
  estimated absolute RMS force accuracy = 7.7110449e-05
  estimated relative force accuracy = 5.3550243e-06
  using double precision KISS FFT
  3d grid and FFT values/proc = 15625 5832
Generated 0 of 21 mixed pair_coeff terms from geometric mixing rule
Per MPI rank memory allocation (min/avg/max) = 9.773 | 9.773 | 9.773 Mbytes
   Step          Temp          E_pair         E_mol          TotEng         Press     
       124   3359.7379      3.1611189      0.094568055    4.1242474      266.36827    
       125   3713.9783      3.129776       0.033966145    4.1238809      237.0587     
Loop time of 0.00107801 on 1 procs for 1 steps with 3 atoms

run 1 pre yes post no
PPPM initialization ...
  using 12-bit tables for long-range coulomb (src/kspace.cpp:342)
  G vector (1/distance) = 0.28934131
  grid = 18 18 18
  stencil order = 5
  estimated absolute RMS force accuracy = 7.7110449e-05
  estimated relative force accuracy = 5.3550243e-06
  using double precision KISS FFT
  3d grid and FFT values/proc = 15625 5832
Generated 0 of 21 mixed pair_coeff terms from geometric mixing rule
Per MPI rank memory allocation (min/avg/max) = 9.773 | 9.773 | 9.773 Mbytes
   Step          Temp          E_pair         E_mol          TotEng         Press     
       125   3713.9783      3.129776       0.033966145    4.1238809      237.0587     
       126   3961.8372      3.0962629      0.0031602214   4.1236384      202.39977    
Loop time of 0.00104804 on 1 procs for 1 steps with 3 atoms

run 1 pre yes post no
PPPM initialization ...
  using 12-bit tables for long-range coulomb (src/kspace.cpp:342)
  G vector (1/distance) = 0.28934131
  grid = 18 18 18
  stencil order = 5
  estimated absolute RMS force accuracy = 7.7110449e-05
  estimated relative force accuracy = 5.3550243e-06
  using double precision KISS FFT
  3d grid and FFT values/proc = 15625 5832
Generated 0 of 21 mixed pair_coeff terms from geometric mixing rule
Per MPI rank memory allocation (min/avg/max) = 9.773 | 9.773 | 9.773 Mbytes
   Step          Temp          E_pair         E_mol          TotEng         Press     
       126   3961.8372      3.0962629      0.0031602214   4.1236384      202.39977    
       127   4089.0951      3.0608731      0.0055520639   4.1235392      162.62586    
Loop time of 0.00105451 on 1 procs for 1 steps with 3 atoms

run 1 pre yes post no
PPPM initialization ...
  using 12-bit tables for long-range coulomb (src/kspace.cpp:342)
  G vector (1/distance) = 0.28934131
  grid = 18 18 18
  stencil order = 5
  estimated absolute RMS force accuracy = 7.7110449e-05
  estimated relative force accuracy = 5.3550243e-06
  using double precision KISS FFT
  3d grid and FFT values/proc = 15625 5832
Generated 0 of 21 mixed pair_coeff terms from geometric mixing rule
Per MPI rank memory allocation (min/avg/max) = 9.773 | 9.773 | 9.773 Mbytes
   Step          Temp          E_pair         E_mol          TotEng         Press     
       127   4089.0951      3.0608731      0.0055520639   4.1235392      162.62586    
       128   4090.2602      3.0238922      0.042280637    4.1235881      118.28219    
Loop time of 0.00108901 on 1 procs for 1 steps with 3 atoms

run 1 pre yes post no
PPPM initialization ...
  using 12-bit tables for long-range coulomb (src/kspace.cpp:342)
  G vector (1/distance) = 0.28934131
  grid = 18 18 18
  stencil order = 5
  estimated absolute RMS force accuracy = 7.7110449e-05
  estimated relative force accuracy = 5.3550243e-06
  using double precision KISS FFT
  3d grid and FFT values/proc = 15625 5832
Generated 0 of 21 mixed pair_coeff terms from geometric mixing rule
Per MPI rank memory allocation (min/avg/max) = 9.773 | 9.773 | 9.773 Mbytes
   Step          Temp          E_pair         E_mol          TotEng         Press     
       128   4090.2602      3.0238922      0.042280637    4.1235881      118.28219    
       129   3968.9698      2.9855983      0.11212412     4.1237817      70.225585    
Loop time of 0.00106292 on 1 procs for 1 steps with 3 atoms

run 1 pre yes post no
PPPM initialization ...
  using 12-bit tables for long-range coulomb (src/kspace.cpp:342)
  G vector (1/distance) = 0.28934131
  grid = 18 18 18
  stencil order = 5
  estimated absolute RMS force accuracy = 7.7110449e-05
  estimated relative force accuracy = 5.3550243e-06
  using double precision KISS FFT
  3d grid and FFT values/proc = 15625 5832
Generated 0 of 21 mixed pair_coeff terms from geometric mixing rule
Per MPI rank memory allocation (min/avg/max) = 9.773 | 9.773 | 9.773 Mbytes
   Step          Temp          E_pair         E_mol          TotEng         Press     
       129   3968.9698      2.9855983      0.11212412     4.1237817      70.225585    
       130   3737.7503      2.9462542      0.21156718     4.1241057      19.602805    
Loop time of 0.00108638 on 1 procs for 1 steps with 3 atoms

run 1 pre yes post no
PPPM initialization ...
  using 12-bit tables for long-range coulomb (src/kspace.cpp:342)
  G vector (1/distance) = 0.28934131
  grid = 18 18 18
  stencil order = 5
  estimated absolute RMS force accuracy = 7.7110449e-05
  estimated relative force accuracy = 5.3550243e-06
  using double precision KISS FFT
  3d grid and FFT values/proc = 15625 5832
Generated 0 of 21 mixed pair_coeff terms from geometric mixing rule
Per MPI rank memory allocation (min/avg/max) = 9.773 | 9.773 | 9.773 Mbytes
   Step          Temp          E_pair         E_mol          TotEng         Press     
       130   3737.7503      2.9462542      0.21156718     4.1241057      19.602805    
       131   3417.1507      2.9061057      0.3350292      4.1245377     -32.191799    
Loop time of 0.00118171 on 1 procs for 1 steps with 3 atoms

run 1 pre yes post no
PPPM initialization ...
  using 12-bit tables for long-range coulomb (src/kspace.cpp:342)
  G vector (1/distance) = 0.28934131
  grid = 18 18 18
  stencil order = 5
  estimated absolute RMS force accuracy = 7.7110449e-05
  estimated relative force accuracy = 5.3550243e-06
  using double precision KISS FFT
  3d grid and FFT values/proc = 15625 5832
Generated 0 of 21 mixed pair_coeff terms from geometric mixing rule
Per MPI rank memory allocation (min/avg/max) = 9.773 | 9.773 | 9.773 Mbytes
   Step          Temp          E_pair         E_mol          TotEng         Press     
       131   3417.1507      2.9061057      0.3350292      4.1245377     -32.191799    
       132   3034.3067      2.8653788      0.47523781     4.1250465     -83.577718    
Loop time of 0.00108796 on 1 procs for 1 steps with 3 atoms

run 1 pre yes post no
PPPM initialization ...
  using 12-bit tables for long-range coulomb (src/kspace.cpp:342)
  G vector (1/distance) = 0.28934131
  grid = 18 18 18
  stencil order = 5
  estimated absolute RMS force accuracy = 7.7110449e-05
  estimated relative force accuracy = 5.3550243e-06
  using double precision KISS FFT
  3d grid and FFT values/proc = 15625 5832
Generated 0 of 21 mixed pair_coeff terms from geometric mixing rule
Per MPI rank memory allocation (min/avg/max) = 9.773 | 9.773 | 9.773 Mbytes
   Step          Temp          E_pair         E_mol          TotEng         Press     
       132   3034.3067      2.8653788      0.47523781     4.1250465     -83.577718    
       133   2621.0385      2.8242818      0.62372149     4.1255949     -132.86467    
Loop time of 0.00150649 on 1 procs for 1 steps with 3 atoms

run 1 pre yes post no
PPPM initialization ...
  using 12-bit tables for long-range coulomb (src/kspace.cpp:342)
  G vector (1/distance) = 0.28934131
  grid = 18 18 18
  stencil order = 5
  estimated absolute RMS force accuracy = 7.7110449e-05
  estimated relative force accuracy = 5.3550243e-06
  using double precision KISS FFT
  3d grid and FFT values/proc = 15625 5832
Generated 0 of 21 mixed pair_coeff terms from geometric mixing rule
Per MPI rank memory allocation (min/avg/max) = 9.773 | 9.773 | 9.773 Mbytes
   Step          Temp          E_pair         E_mol          TotEng         Press     
       133   2621.0385      2.8242818      0.62372149     4.1255949     -132.86467    
       134   2211.6135      2.7830117      0.77138649     4.1261451     -178.33934    
Loop time of 0.00152113 on 1 procs for 1 steps with 3 atoms

run 1 pre yes post no
PPPM initialization ...
  using 12-bit tables for long-range coulomb (src/kspace.cpp:342)
  G vector (1/distance) = 0.28934131
  grid = 18 18 18
  stencil order = 5
  estimated absolute RMS force accuracy = 7.7110449e-05
  estimated relative force accuracy = 5.3550243e-06
  using double precision KISS FFT
  3d grid and FFT values/proc = 15625 5832
Generated 0 of 21 mixed pair_coeff terms from geometric mixing rule
Per MPI rank memory allocation (min/avg/max) = 9.773 | 9.773 | 9.773 Mbytes
   Step          Temp          E_pair         E_mol          TotEng         Press     
       134   2211.6135      2.7830117      0.77138649     4.1261451     -178.33934    
       135   1840.3354      2.7417559      0.90913713     4.1266571     -218.35716    
Loop time of 0.00151403 on 1 procs for 1 steps with 3 atoms

run 1 pre yes post no
PPPM initialization ...
  using 12-bit tables for long-range coulomb (src/kspace.cpp:342)
  G vector (1/distance) = 0.28934131
  grid = 18 18 18
  stencil order = 5
  estimated absolute RMS force accuracy = 7.7110449e-05
  estimated relative force accuracy = 5.3550243e-06
  using double precision KISS FFT
  3d grid and FFT values/proc = 15625 5832
Generated 0 of 21 mixed pair_coeff terms from geometric mixing rule
Per MPI rank memory allocation (min/avg/max) = 9.773 | 9.773 | 9.773 Mbytes
   Step          Temp          E_pair         E_mol          TotEng         Press     
       135   1840.3354      2.7417559      0.90913713     4.1266571     -218.35716    
       136   1539.1313      2.700703       1.0284953      4.1270949     -251.4325     
Loop time of 0.00130779 on 1 procs for 1 steps with 3 atoms

run 1 pre yes post no
PPPM initialization ...
  using 12-bit tables for long-range coulomb (src/kspace.cpp:342)
  G vector (1/distance) = 0.28934131
  grid = 18 18 18
  stencil order = 5
  estimated absolute RMS force accuracy = 7.7110449e-05
  estimated relative force accuracy = 5.3550243e-06
  using double precision KISS FFT
  3d grid and FFT values/proc = 15625 5832
Generated 0 of 21 mixed pair_coeff terms from geometric mixing rule
Per MPI rank memory allocation (min/avg/max) = 9.773 | 9.773 | 9.773 Mbytes
   Step          Temp          E_pair         E_mol          TotEng         Press     
       136   1539.1313      2.700703       1.0284953      4.1270949     -251.4325     
       137   1335.3122      2.6600479      1.1221745      4.1274277     -276.32194    
Loop time of 0.0018872 on 1 procs for 1 steps with 3 atoms

run 1 pre yes post no
PPPM initialization ...
  using 12-bit tables for long-range coulomb (src/kspace.cpp:342)
  G vector (1/distance) = 0.28934131
  grid = 18 18 18
  stencil order = 5
  estimated absolute RMS force accuracy = 7.7110449e-05
  estimated relative force accuracy = 5.3550243e-06
  using double precision KISS FFT
  3d grid and FFT values/proc = 15625 5832
Generated 0 of 21 mixed pair_coeff terms from geometric mixing rule
Per MPI rank memory allocation (min/avg/max) = 9.773 | 9.773 | 9.773 Mbytes
   Step          Temp          E_pair         E_mol          TotEng         Press     
       137   1335.3122      2.6600479      1.1221745      4.1274277     -276.32194    
       138   1249.6692      2.6199983      1.1845681      4.1276312     -292.09458    
Loop time of 0.00179745 on 1 procs for 1 steps with 3 atoms

run 1 pre yes post no
PPPM initialization ...
  using 12-bit tables for long-range coulomb (src/kspace.cpp:342)
  G vector (1/distance) = 0.28934131
  grid = 18 18 18
  stencil order = 5
  estimated absolute RMS force accuracy = 7.7110449e-05
  estimated relative force accuracy = 5.3550243e-06
  using double precision KISS FFT
  3d grid and FFT values/proc = 15625 5832
Generated 0 of 21 mixed pair_coeff terms from geometric mixing rule
Per MPI rank memory allocation (min/avg/max) = 9.773 | 9.773 | 9.773 Mbytes
   Step          Temp          E_pair         E_mol          TotEng         Press     
       138   1249.6692      2.6199983      1.1845681      4.1276312     -292.09458    
       139   1295.0449      2.5807827      1.2121155      4.1276936     -298.18461    
Loop time of 0.0014519 on 1 procs for 1 steps with 3 atoms

run 1 pre yes post no
PPPM initialization ...
  using 12-bit tables for long-range coulomb (src/kspace.cpp:342)
  G vector (1/distance) = 0.28934131
  grid = 18 18 18
  stencil order = 5
  estimated absolute RMS force accuracy = 7.7110449e-05
  estimated relative force accuracy = 5.3550243e-06
  using double precision KISS FFT
  3d grid and FFT values/proc = 15625 5832
Generated 0 of 21 mixed pair_coeff terms from geometric mixing rule
Per MPI rank memory allocation (min/avg/max) = 9.773 | 9.773 | 9.773 Mbytes
   Step          Temp          E_pair         E_mol          TotEng         Press     
       139   1295.0449      2.5807827      1.2121155      4.1276936     -298.18461    
       140   1475.4888      2.5426464      1.2035205      4.1276107     -294.42311    
Loop time of 0.00132755 on 1 procs for 1 steps with 3 atoms

run 1 pre yes post no
PPPM initialization ...
  using 12-bit tables for long-range coulomb (src/kspace.cpp:342)
  G vector (1/distance) = 0.28934131
  grid = 18 18 18
  stencil order = 5
  estimated absolute RMS force accuracy = 7.7110449e-05
  estimated relative force accuracy = 5.3550243e-06
  using double precision KISS FFT
  3d grid and FFT values/proc = 15625 5832
Generated 0 of 21 mixed pair_coeff terms from geometric mixing rule
Per MPI rank memory allocation (min/avg/max) = 9.773 | 9.773 | 9.773 Mbytes
   Step          Temp          E_pair         E_mol          TotEng         Press     
       140   1475.4888      2.5426464      1.2035205      4.1276107     -294.42311    
       141   1786.058       2.505853       1.1598058      4.1273911     -281.04597    
Loop time of 0.00135996 on 1 procs for 1 steps with 3 atoms

run 1 pre yes post no
PPPM initialization ...
  using 12-bit tables for long-range coulomb (src/kspace.cpp:342)
  G vector (1/distance) = 0.28934131
  grid = 18 18 18
  stencil order = 5
  estimated absolute RMS force accuracy = 7.7110449e-05
  estimated relative force accuracy = 5.3550243e-06
  using double precision KISS FFT
  3d grid and FFT values/proc = 15625 5832
Generated 0 of 21 mixed pair_coeff terms from geometric mixing rule
Per MPI rank memory allocation (min/avg/max) = 9.773 | 9.773 | 9.773 Mbytes
   Step          Temp          E_pair         E_mol          TotEng         Press     
       141   1786.058       2.505853       1.1598058      4.1273911     -281.04597    
       142   2213.2835      2.4706727      1.0842006      4.127052      -258.67828    
Loop time of 0.00126675 on 1 procs for 1 steps with 3 atoms

run 1 pre yes post no
PPPM initialization ...
  using 12-bit tables for long-range coulomb (src/kspace.cpp:342)
  G vector (1/distance) = 0.28934131
  grid = 18 18 18
  stencil order = 5
  estimated absolute RMS force accuracy = 7.7110449e-05
  estimated relative force accuracy = 5.3550243e-06
  using double precision KISS FFT
  3d grid and FFT values/proc = 15625 5832
Generated 0 of 21 mixed pair_coeff terms from geometric mixing rule
Per MPI rank memory allocation (min/avg/max) = 9.773 | 9.773 | 9.773 Mbytes
   Step          Temp          E_pair         E_mol          TotEng         Press     
       142   2213.2835      2.4706727      1.0842006      4.127052      -258.67828    
       143   2736.2682      2.4373743      0.98186752     4.1266227     -228.29545    
Loop time of 0.00365022 on 1 procs for 1 steps with 3 atoms

run 1 pre yes post no
PPPM initialization ...
  using 12-bit tables for long-range coulomb (src/kspace.cpp:342)
  G vector (1/distance) = 0.28934131
  grid = 18 18 18
  stencil order = 5
  estimated absolute RMS force accuracy = 7.7110449e-05
  estimated relative force accuracy = 5.3550243e-06
  using double precision KISS FFT
  3d grid and FFT values/proc = 15625 5832
Generated 0 of 21 mixed pair_coeff terms from geometric mixing rule
Per MPI rank memory allocation (min/avg/max) = 9.773 | 9.773 | 9.773 Mbytes
   Step          Temp          E_pair         E_mol          TotEng         Press     
       143   2736.2682      2.4373743      0.98186752     4.1266227     -228.29545    
       144   3328.339       2.4062013      0.85949201     4.1261365     -191.16459    
Loop time of 0.00329115 on 1 procs for 1 steps with 3 atoms

run 1 pre yes post no
PPPM initialization ...
  using 12-bit tables for long-range coulomb (src/kspace.cpp:342)
  G vector (1/distance) = 0.28934131
  grid = 18 18 18
  stencil order = 5
  estimated absolute RMS force accuracy = 7.7110449e-05
  estimated relative force accuracy = 5.3550243e-06
  using double precision KISS FFT
  3d grid and FFT values/proc = 15625 5832
Generated 0 of 21 mixed pair_coeff terms from geometric mixing rule
Per MPI rank memory allocation (min/avg/max) = 9.773 | 9.773 | 9.773 Mbytes
   Step          Temp          E_pair         E_mol          TotEng         Press     
       144   3328.339       2.4062013      0.85949201     4.1261365     -191.16459    
       145   3959.1277      2.3773553      0.72476272     4.1256329     -148.76934    
Loop time of 0.0026318 on 1 procs for 1 steps with 3 atoms

run 1 pre yes post no
PPPM initialization ...
  using 12-bit tables for long-range coulomb (src/kspace.cpp:342)
  G vector (1/distance) = 0.28934131
  grid = 18 18 18
  stencil order = 5
  estimated absolute RMS force accuracy = 7.7110449e-05
  estimated relative force accuracy = 5.3550243e-06
  using double precision KISS FFT
  3d grid and FFT values/proc = 15625 5832
Generated 0 of 21 mixed pair_coeff terms from geometric mixing rule
Per MPI rank memory allocation (min/avg/max) = 9.773 | 9.773 | 9.773 Mbytes
   Step          Temp          E_pair         E_mol          TotEng         Press     
       145   3959.1277      2.3773553      0.72476272     4.1256329     -148.76934    
       146   4596.9255      2.3509707      0.58578303     4.1251523     -102.72422    
Loop time of 0.00255835 on 1 procs for 1 steps with 3 atoms

run 1 pre yes post no
PPPM initialization ...
  using 12-bit tables for long-range coulomb (src/kspace.cpp:342)
  G vector (1/distance) = 0.28934131
  grid = 18 18 18
  stencil order = 5
  estimated absolute RMS force accuracy = 7.7110449e-05
  estimated relative force accuracy = 5.3550243e-06
  using double precision KISS FFT
  3d grid and FFT values/proc = 15625 5832
Generated 0 of 21 mixed pair_coeff terms from geometric mixing rule
Per MPI rank memory allocation (min/avg/max) = 9.773 | 9.773 | 9.773 Mbytes
   Step          Temp          E_pair         E_mol          TotEng         Press     
       146   4596.9255      2.3509707      0.58578303     4.1251523     -102.72422    
       147   5211.1289      2.3270926      0.4504584      4.1247336     -54.684103    
Loop time of 0.00258596 on 1 procs for 1 steps with 3 atoms

run 1 pre yes post no
PPPM initialization ...
  using 12-bit tables for long-range coulomb (src/kspace.cpp:342)
  G vector (1/distance) = 0.28934131
  grid = 18 18 18
  stencil order = 5
  estimated absolute RMS force accuracy = 7.7110449e-05
  estimated relative force accuracy = 5.3550243e-06
  using double precision KISS FFT
  3d grid and FFT values/proc = 15625 5832
Generated 0 of 21 mixed pair_coeff terms from geometric mixing rule
Per MPI rank memory allocation (min/avg/max) = 9.773 | 9.773 | 9.773 Mbytes
   Step          Temp          E_pair         E_mol          TotEng         Press     
       147   5211.1289      2.3270926      0.4504584      4.1247336     -54.684103    
       148   5774.5844      2.3056572      0.32590678     4.1244112     -6.2553681    
Loop time of 0.00258436 on 1 procs for 1 steps with 3 atoms

run 1 pre yes post no
PPPM initialization ...
  using 12-bit tables for long-range coulomb (src/kspace.cpp:342)
  G vector (1/distance) = 0.28934131
  grid = 18 18 18
  stencil order = 5
  estimated absolute RMS force accuracy = 7.7110449e-05
  estimated relative force accuracy = 5.3550243e-06
  using double precision KISS FFT
  3d grid and FFT values/proc = 15625 5832
Generated 0 of 21 mixed pair_coeff terms from geometric mixing rule
Per MPI rank memory allocation (min/avg/max) = 9.773 | 9.773 | 9.773 Mbytes
   Step          Temp          E_pair         E_mol          TotEng         Press     
       148   5774.5844      2.3056572      0.32590678     4.1244112     -6.2553681    
       149   6265.6433      2.2864771      0.217939       4.124212       41.08481     
Loop time of 0.00253226 on 1 procs for 1 steps with 3 atoms

run 1 pre yes post no
PPPM initialization ...
  using 12-bit tables for long-range coulomb (src/kspace.cpp:342)
  G vector (1/distance) = 0.28934131
  grid = 18 18 18
  stencil order = 5
  estimated absolute RMS force accuracy = 7.7110449e-05
  estimated relative force accuracy = 5.3550243e-06
  using double precision KISS FFT
  3d grid and FFT values/proc = 15625 5832
Generated 0 of 21 mixed pair_coeff terms from geometric mixing rule
Per MPI rank memory allocation (min/avg/max) = 9.773 | 9.773 | 9.773 Mbytes
   Step          Temp          E_pair         E_mol          TotEng         Press     
       149   6265.6433      2.2864771      0.217939       4.124212       41.08481     
       150   6669.7548      2.2692328      0.13065128     4.124151       86.055372    
Loop time of 0.00256269 on 1 procs for 1 steps with 3 atoms

run 1 pre yes post no
PPPM initialization ...
  using 12-bit tables for long-range coulomb (src/kspace.cpp:342)
  G vector (1/distance) = 0.28934131
  grid = 18 18 18
  stencil order = 5
  estimated absolute RMS force accuracy = 7.7110449e-05
  estimated relative force accuracy = 5.3550243e-06
  using double precision KISS FFT
  3d grid and FFT values/proc = 15625 5832
Generated 0 of 21 mixed pair_coeff terms from geometric mixing rule
Per MPI rank memory allocation (min/avg/max) = 9.773 | 9.773 | 9.773 Mbytes
   Step          Temp          E_pair         E_mol          TotEng         Press     
       150   6669.7548      2.2692328      0.13065128     4.124151       86.055372    
       151   6980.4578      2.2534792      0.066165222    4.1242344      127.61982    
Loop time of 0.00258866 on 1 procs for 1 steps with 3 atoms

run 1 pre yes post no
PPPM initialization ...
  using 12-bit tables for long-range coulomb (src/kspace.cpp:342)
  G vector (1/distance) = 0.28934131
  grid = 18 18 18
  stencil order = 5
  estimated absolute RMS force accuracy = 7.7110449e-05
  estimated relative force accuracy = 5.3550243e-06
  using double precision KISS FFT
  3d grid and FFT values/proc = 15625 5832
Generated 0 of 21 mixed pair_coeff terms from geometric mixing rule
Per MPI rank memory allocation (min/avg/max) = 9.773 | 9.773 | 9.773 Mbytes
   Step          Temp          E_pair         E_mol          TotEng         Press     
       151   6980.4578      2.2534792      0.066165222    4.1242344      127.61982    
       152   7199.6724      2.238651       0.024540079    4.1244525      165.01246    
Loop time of 0.00254208 on 1 procs for 1 steps with 3 atoms

run 1 pre yes post no
PPPM initialization ...
  using 12-bit tables for long-range coulomb (src/kspace.cpp:342)
  G vector (1/distance) = 0.28934131
  grid = 18 18 18
  stencil order = 5
  estimated absolute RMS force accuracy = 7.7110449e-05
  estimated relative force accuracy = 5.3550243e-06
  using double precision KISS FFT
  3d grid and FFT values/proc = 15625 5832
Generated 0 of 21 mixed pair_coeff terms from geometric mixing rule
Per MPI rank memory allocation (min/avg/max) = 9.773 | 9.773 | 9.773 Mbytes
   Step          Temp          E_pair         E_mol          TotEng         Press     
       152   7199.6724      2.238651       0.024540079    4.1244525      165.01246    
       153   7337.246       2.224089       0.0038698757   4.1247859      197.74144    
Loop time of 0.00253639 on 1 procs for 1 steps with 3 atoms

run 1 pre yes post no
PPPM initialization ...
  using 12-bit tables for long-range coulomb (src/kspace.cpp:342)
  G vector (1/distance) = 0.28934131
  grid = 18 18 18
  stencil order = 5
  estimated absolute RMS force accuracy = 7.7110449e-05
  estimated relative force accuracy = 5.3550243e-06
  using double precision KISS FFT
  3d grid and FFT values/proc = 15625 5832
Generated 0 of 21 mixed pair_coeff terms from geometric mixing rule
Per MPI rank memory allocation (min/avg/max) = 9.773 | 9.773 | 9.773 Mbytes
   Step          Temp          E_pair         E_mol          TotEng         Press     
       153   7337.246       2.224089       0.0038698757   4.1247859      197.74144    
       154   7409.7674      2.2090635      0.00056299928  4.1252018      225.56801    
Loop time of 0.00253009 on 1 procs for 1 steps with 3 atoms

run 1 pre yes post no
PPPM initialization ...
  using 12-bit tables for long-range coulomb (src/kspace.cpp:342)
  G vector (1/distance) = 0.28934131
  grid = 18 18 18
  stencil order = 5
  estimated absolute RMS force accuracy = 7.7110449e-05
  estimated relative force accuracy = 5.3550243e-06
  using double precision KISS FFT
  3d grid and FFT values/proc = 15625 5832
Generated 0 of 21 mixed pair_coeff terms from geometric mixing rule
Per MPI rank memory allocation (min/avg/max) = 9.773 | 9.773 | 9.773 Mbytes
   Step          Temp          E_pair         E_mol          TotEng         Press     
       154   7409.7674      2.2090635      0.00056299928  4.1252018      225.56801    
       155   7438.7266      2.1928097      0.0097861257   4.1256576      248.46513    
Loop time of 0.00267748 on 1 procs for 1 steps with 3 atoms

run 1 pre yes post no
PPPM initialization ...
  using 12-bit tables for long-range coulomb (src/kspace.cpp:342)
  G vector (1/distance) = 0.28934131
  grid = 18 18 18
  stencil order = 5
  estimated absolute RMS force accuracy = 7.7110449e-05
  estimated relative force accuracy = 5.3550243e-06
  using double precision KISS FFT
  3d grid and FFT values/proc = 15625 5832
Generated 0 of 21 mixed pair_coeff terms from geometric mixing rule
Per MPI rank memory allocation (min/avg/max) = 9.773 | 9.773 | 9.773 Mbytes
   Step          Temp          E_pair         E_mol          TotEng         Press     
       155   7438.7266      2.1928097      0.0097861257   4.1256576      248.46513    
       156   7448.1617      2.1745694      0.02603766     4.126108       266.5594     
Loop time of 0.00260881 on 1 procs for 1 steps with 3 atoms

run 1 pre yes post no
PPPM initialization ...
  using 12-bit tables for long-range coulomb (src/kspace.cpp:342)
  G vector (1/distance) = 0.28934131
  grid = 18 18 18
  stencil order = 5
  estimated absolute RMS force accuracy = 7.7110449e-05
  estimated relative force accuracy = 5.3550243e-06
  using double precision KISS FFT
  3d grid and FFT values/proc = 15625 5832
Generated 0 of 21 mixed pair_coeff terms from geometric mixing rule
Per MPI rank memory allocation (min/avg/max) = 9.773 | 9.773 | 9.773 Mbytes
   Step          Temp          E_pair         E_mol          TotEng         Press     
       156   7448.1617      2.1745694      0.02603766     4.126108       266.5594     
       157   7461.9975      2.1536249      0.043800087    4.1265028      280.06217    
Loop time of 0.00258329 on 1 procs for 1 steps with 3 atoms

run 1 pre yes post no
PPPM initialization ...
  using 12-bit tables for long-range coulomb (src/kspace.cpp:342)
  G vector (1/distance) = 0.28934131
  grid = 18 18 18
  stencil order = 5
  estimated absolute RMS force accuracy = 7.7110449e-05
  estimated relative force accuracy = 5.3550243e-06
  using double precision KISS FFT
  3d grid and FFT values/proc = 15625 5832
Generated 0 of 21 mixed pair_coeff terms from geometric mixing rule
Per MPI rank memory allocation (min/avg/max) = 9.773 | 9.773 | 9.773 Mbytes
   Step          Temp          E_pair         E_mol          TotEng         Press     
       157   7461.9975      2.1536249      0.043800087    4.1265028      280.06217    
       158   7501.327       2.1293455      0.058207542    4.1267983      289.19829    
Loop time of 0.00302004 on 1 procs for 1 steps with 3 atoms

run 1 pre yes post no
PPPM initialization ...
  using 12-bit tables for long-range coulomb (src/kspace.cpp:342)
  G vector (1/distance) = 0.28934131
  grid = 18 18 18
  stencil order = 5
  estimated absolute RMS force accuracy = 7.7110449e-05
  estimated relative force accuracy = 5.3550243e-06
  using double precision KISS FFT
  3d grid and FFT values/proc = 15625 5832
Generated 0 of 21 mixed pair_coeff terms from geometric mixing rule
Per MPI rank memory allocation (min/avg/max) = 9.773 | 9.773 | 9.773 Mbytes
   Step          Temp          E_pair         E_mol          TotEng         Press     
       158   7501.327       2.1293455      0.058207542    4.1267983      289.19829    
       159   7581.9157      2.1012225      0.065657185    4.1269588      294.13996    
Loop time of 0.00370654 on 1 procs for 1 steps with 3 atoms

run 1 pre yes post no
PPPM initialization ...
  using 12-bit tables for long-range coulomb (src/kspace.cpp:342)
  G vector (1/distance) = 0.28934131
  grid = 18 18 18
  stencil order = 5
  estimated absolute RMS force accuracy = 7.7110449e-05
  estimated relative force accuracy = 5.3550243e-06
  using double precision KISS FFT
  3d grid and FFT values/proc = 15625 5832
Generated 0 of 21 mixed pair_coeff terms from geometric mixing rule
Per MPI rank memory allocation (min/avg/max) = 9.773 | 9.773 | 9.773 Mbytes
   Step          Temp          E_pair         E_mol          TotEng         Press     
       159   7581.9157      2.1012225      0.065657185    4.1269588      294.13996    
       160   7712.2078      2.068905       0.064293133    4.1269604      294.95455    
Loop time of 0.00336048 on 1 procs for 1 steps with 3 atoms

run 1 pre yes post no
PPPM initialization ...
  using 12-bit tables for long-range coulomb (src/kspace.cpp:342)
  G vector (1/distance) = 0.28934131
  grid = 18 18 18
  stencil order = 5
  estimated absolute RMS force accuracy = 7.7110449e-05
  estimated relative force accuracy = 5.3550243e-06
  using double precision KISS FFT
  3d grid and FFT values/proc = 15625 5832
Generated 0 of 21 mixed pair_coeff terms from geometric mixing rule
Per MPI rank memory allocation (min/avg/max) = 9.773 | 9.773 | 9.773 Mbytes
   Step          Temp          E_pair         E_mol          TotEng         Press     
       160   7712.2078      2.068905       0.064293133    4.1269604      294.95455    
       161   7892.0713      2.0322347      0.054301825    4.1267971      291.57315    
Loop time of 0.00365185 on 1 procs for 1 steps with 3 atoms

run 1 pre yes post no
PPPM initialization ...
  using 12-bit tables for long-range coulomb (src/kspace.cpp:342)
  G vector (1/distance) = 0.28934131
  grid = 18 18 18
  stencil order = 5
  estimated absolute RMS force accuracy = 7.7110449e-05
  estimated relative force accuracy = 5.3550243e-06
  using double precision KISS FFT
  3d grid and FFT values/proc = 15625 5832
Generated 0 of 21 mixed pair_coeff terms from geometric mixing rule
Per MPI rank memory allocation (min/avg/max) = 9.773 | 9.773 | 9.773 Mbytes
   Step          Temp          E_pair         E_mol          TotEng         Press     
       161   7892.0713      2.0322347      0.054301825    4.1267971      291.57315    
       162   8112.4459      1.991271       0.037977507    4.1264804      283.78427    
Loop time of 0.00394063 on 1 procs for 1 steps with 3 atoms

run 1 pre yes post no
PPPM initialization ...
  using 12-bit tables for long-range coulomb (src/kspace.cpp:342)
  G vector (1/distance) = 0.28934131
  grid = 18 18 18
  stencil order = 5
  estimated absolute RMS force accuracy = 7.7110449e-05
  estimated relative force accuracy = 5.3550243e-06
  using double precision KISS FFT
  3d grid and FFT values/proc = 15625 5832
Generated 0 of 21 mixed pair_coeff terms from geometric mixing rule
Per MPI rank memory allocation (min/avg/max) = 9.773 | 9.773 | 9.773 Mbytes
   Step          Temp          E_pair         E_mol          TotEng         Press     
       162   8112.4459      1.991271       0.037977507    4.1264804      283.78427    
       163   8355.9518      1.9463095      0.019543787    4.1260364      271.2543     
Loop time of 0.00335687 on 1 procs for 1 steps with 3 atoms

run 1 pre yes post no
PPPM initialization ...
  using 12-bit tables for long-range coulomb (src/kspace.cpp:342)
  G vector (1/distance) = 0.28934131
  grid = 18 18 18
  stencil order = 5
  estimated absolute RMS force accuracy = 7.7110449e-05
  estimated relative force accuracy = 5.3550243e-06
  using double precision KISS FFT
  3d grid and FFT values/proc = 15625 5832
Generated 0 of 21 mixed pair_coeff terms from geometric mixing rule
Per MPI rank memory allocation (min/avg/max) = 9.773 | 9.773 | 9.773 Mbytes
   Step          Temp          E_pair         E_mol          TotEng         Press     
       163   8355.9518      1.9463095      0.019543787    4.1260364      271.2543     
       164   8598.4068      1.897897       0.0047472215   4.1255068      253.57278    
Loop time of 0.00293798 on 1 procs for 1 steps with 3 atoms

run 1 pre yes post no
PPPM initialization ...
  using 12-bit tables for long-range coulomb (src/kspace.cpp:342)
  G vector (1/distance) = 0.28934131
  grid = 18 18 18
  stencil order = 5
  estimated absolute RMS force accuracy = 7.7110449e-05
  estimated relative force accuracy = 5.3550243e-06
  using double precision KISS FFT
  3d grid and FFT values/proc = 15625 5832
Generated 0 of 21 mixed pair_coeff terms from geometric mixing rule
Per MPI rank memory allocation (min/avg/max) = 9.773 | 9.773 | 9.773 Mbytes
   Step          Temp          E_pair         E_mol          TotEng         Press     
       164   8598.4068      1.897897       0.0047472215   4.1255068      253.57278    
       165   8811.0949      1.846827       0.0002663339   4.1249402      230.3168     
Loop time of 0.00276651 on 1 procs for 1 steps with 3 atoms

run 1 pre yes post no
PPPM initialization ...
  using 12-bit tables for long-range coulomb (src/kspace.cpp:342)
  G vector (1/distance) = 0.28934131
  grid = 18 18 18
  stencil order = 5
  estimated absolute RMS force accuracy = 7.7110449e-05
  estimated relative force accuracy = 5.3550243e-06
  using double precision KISS FFT
  3d grid and FFT values/proc = 15625 5832
Generated 0 of 21 mixed pair_coeff terms from geometric mixing rule
Per MPI rank memory allocation (min/avg/max) = 9.773 | 9.773 | 9.773 Mbytes
   Step          Temp          E_pair         E_mol          TotEng         Press     
       165   8811.0949      1.846827       0.0002663339   4.1249402      230.3168     
       166   8963.5548      1.7941322      0.012999871    4.1243929      201.12791    
Loop time of 0.00274585 on 1 procs for 1 steps with 3 atoms

run 1 pre yes post no
PPPM initialization ...
  using 12-bit tables for long-range coulomb (src/kspace.cpp:342)
  G vector (1/distance) = 0.28934131
  grid = 18 18 18
  stencil order = 5
  estimated absolute RMS force accuracy = 7.7110449e-05
  estimated relative force accuracy = 5.3550243e-06
  using double precision KISS FFT
  3d grid and FFT values/proc = 15625 5832
Generated 0 of 21 mixed pair_coeff terms from geometric mixing rule
Per MPI rank memory allocation (min/avg/max) = 9.773 | 9.773 | 9.773 Mbytes
   Step          Temp          E_pair         E_mol          TotEng         Press     
       166   8963.5548      1.7941322      0.012999871    4.1243929      201.12791    
       167   9026.62        1.7410491      0.049309083    4.1239226      165.79204    
Loop time of 0.00333177 on 1 procs for 1 steps with 3 atoms

run 1 pre yes post no
PPPM initialization ...
  using 12-bit tables for long-range coulomb (src/kspace.cpp:342)
  G vector (1/distance) = 0.28934131
  grid = 18 18 18
  stencil order = 5
  estimated absolute RMS force accuracy = 7.7110449e-05
  estimated relative force accuracy = 5.3550243e-06
  using double precision KISS FFT
  3d grid and FFT values/proc = 15625 5832
Generated 0 of 21 mixed pair_coeff terms from geometric mixing rule
Per MPI rank memory allocation (min/avg/max) = 9.773 | 9.773 | 9.773 Mbytes
   Step          Temp          E_pair         E_mol          TotEng         Press     
       167   9026.62        1.7410491      0.049309083    4.1239226      165.79204    
       168   8975.4444      1.6889765      0.1142906      4.1236016      124.31472    
Loop time of 0.00272136 on 1 procs for 1 steps with 3 atoms

run 1 pre yes post no
PPPM initialization ...
  using 12-bit tables for long-range coulomb (src/kspace.cpp:342)
  G vector (1/distance) = 0.28934131
  grid = 18 18 18
  stencil order = 5
  estimated absolute RMS force accuracy = 7.7110449e-05
  estimated relative force accuracy = 5.3550243e-06
  using double precision KISS FFT
  3d grid and FFT values/proc = 15625 5832
Generated 0 of 21 mixed pair_coeff terms from geometric mixing rule
Per MPI rank memory allocation (min/avg/max) = 9.773 | 9.773 | 9.773 Mbytes
   Step          Temp          E_pair         E_mol          TotEng         Press     
       168   8975.4444      1.6889765      0.1142906      4.1236016      124.31472    
       169   8792.2915      1.6394048      0.21115146     4.1235421      76.983789    
Loop time of 0.00265836 on 1 procs for 1 steps with 3 atoms

run 1 pre yes post no
PPPM initialization ...
  using 12-bit tables for long-range coulomb (src/kspace.cpp:342)
  G vector (1/distance) = 0.28934131
  grid = 18 18 18
  stencil order = 5
  estimated absolute RMS force accuracy = 7.7110449e-05
  estimated relative force accuracy = 5.3550243e-06
  using double precision KISS FFT
  3d grid and FFT values/proc = 15625 5832
Generated 0 of 21 mixed pair_coeff terms from geometric mixing rule
Per MPI rank memory allocation (min/avg/max) = 9.773 | 9.773 | 9.773 Mbytes
   Step          Temp          E_pair         E_mol          TotEng         Press     
       169   8792.2915      1.6394048      0.21115146     4.1235421      76.983789    
       170   8468.8844      1.5938424      0.34075028     4.1239711      24.413722    
Loop time of 0.0029419 on 1 procs for 1 steps with 3 atoms

run 1 pre yes post no
PPPM initialization ...
  using 12-bit tables for long-range coulomb (src/kspace.cpp:342)
  G vector (1/distance) = 0.28934131
  grid = 18 18 18
  stencil order = 5
  estimated absolute RMS force accuracy = 7.7110449e-05
  estimated relative force accuracy = 5.3550243e-06
  using double precision KISS FFT
  3d grid and FFT values/proc = 15625 5832
Generated 0 of 21 mixed pair_coeff terms from geometric mixing rule
Per MPI rank memory allocation (min/avg/max) = 9.773 | 9.773 | 9.773 Mbytes
   Step          Temp          E_pair         E_mol          TotEng         Press     
       170   8468.8844      1.5938424      0.34075028     4.1239711      24.413722    
       171   8008.0246      1.5537158      0.50136084     4.1253135     -32.437106    
Loop time of 0.0025385 on 1 procs for 1 steps with 3 atoms

run 1 pre yes post no
PPPM initialization ...
  using 12-bit tables for long-range coulomb (src/kspace.cpp:342)
  G vector (1/distance) = 0.28934131
  grid = 18 18 18
  stencil order = 5
  estimated absolute RMS force accuracy = 7.7110449e-05
  estimated relative force accuracy = 5.3550243e-06
  using double precision KISS FFT
  3d grid and FFT values/proc = 15625 5832
Generated 0 of 21 mixed pair_coeff terms from geometric mixing rule
Per MPI rank memory allocation (min/avg/max) = 9.773 | 9.773 | 9.773 Mbytes
   Step          Temp          E_pair         E_mol          TotEng         Press     
       171   8008.0246      1.5537158      0.50136084     4.1253135     -32.437106    
       172   7423.9431      1.5202686      0.68870313     4.1282116     -92.286583    
Loop time of 0.00272779 on 1 procs for 1 steps with 3 atoms

run 1 pre yes post no
PPPM initialization ...
  using 12-bit tables for long-range coulomb (src/kspace.cpp:342)
  G vector (1/distance) = 0.28934131
  grid = 18 18 18
  stencil order = 5
  estimated absolute RMS force accuracy = 7.7110449e-05
  estimated relative force accuracy = 5.3550243e-06
  using double precision KISS FFT
  3d grid and FFT values/proc = 15625 5832
Generated 0 of 21 mixed pair_coeff terms from geometric mixing rule
Per MPI rank memory allocation (min/avg/max) = 9.773 | 9.773 | 9.773 Mbytes
   Step          Temp          E_pair         E_mol          TotEng         Press     
       172   7423.9431      1.5202686      0.68870313     4.1282116     -92.286583    
       173   6740.7933      1.4944814      0.89625341     4.1333666     -153.59442    
Loop time of 0.0024665 on 1 procs for 1 steps with 3 atoms

run 1 pre yes post no
PPPM initialization ...
  using 12-bit tables for long-range coulomb (src/kspace.cpp:342)
  G vector (1/distance) = 0.28934131
  grid = 18 18 18
  stencil order = 5
  estimated absolute RMS force accuracy = 7.7110449e-05
  estimated relative force accuracy = 5.3550243e-06
  using double precision KISS FFT
  3d grid and FFT values/proc = 15625 5832
Generated 0 of 21 mixed pair_coeff terms from geometric mixing rule
Per MPI rank memory allocation (min/avg/max) = 9.773 | 9.773 | 9.773 Mbytes
   Step          Temp          E_pair         E_mol          TotEng         Press     
       173   6740.7933      1.4944814      0.89625341     4.1333666     -153.59442    
       174   5989.3256      1.4769958      1.115779       4.141137      -214.66585    
Loop time of 0.00340843 on 1 procs for 1 steps with 3 atoms

run 1 pre yes post no
PPPM initialization ...
  using 12-bit tables for long-range coulomb (src/kspace.cpp:342)
  G vector (1/distance) = 0.28934131
  grid = 18 18 18
  stencil order = 5
  estimated absolute RMS force accuracy = 7.7110449e-05
  estimated relative force accuracy = 5.3550243e-06
  using double precision KISS FFT
  3d grid and FFT values/proc = 15625 5832
Generated 0 of 21 mixed pair_coeff terms from geometric mixing rule
Per MPI rank memory allocation (min/avg/max) = 9.773 | 9.773 | 9.773 Mbytes
   Step          Temp          E_pair         E_mol          TotEng         Press     
       174   5989.3256      1.4769958      1.115779       4.141137      -214.66585    
       175   5202.9022      1.4681068      1.3379721      4.1511346     -273.75967    
Loop time of 0.00324688 on 1 procs for 1 steps with 3 atoms

run 1 pre yes post no
PPPM initialization ...
  using 12-bit tables for long-range coulomb (src/kspace.cpp:342)
  G vector (1/distance) = 0.28934131
  grid = 18 18 18
  stencil order = 5
  estimated absolute RMS force accuracy = 7.7110449e-05
  estimated relative force accuracy = 5.3550243e-06
  using double precision KISS FFT
  3d grid and FFT values/proc = 15625 5832
Generated 0 of 21 mixed pair_coeff terms from geometric mixing rule
Per MPI rank memory allocation (min/avg/max) = 9.773 | 9.773 | 9.773 Mbytes
   Step          Temp          E_pair         E_mol          TotEng         Press     
       175   5202.9022      1.4681068      1.3379721      4.1511346     -273.75967    
       176   4414.5127      1.4677999      1.5530395      4.1620805     -329.16506    
Loop time of 0.00351164 on 1 procs for 1 steps with 3 atoms

run 1 pre yes post no
PPPM initialization ...
  using 12-bit tables for long-range coulomb (src/kspace.cpp:342)
  G vector (1/distance) = 0.28934131
  grid = 18 18 18
  stencil order = 5
  estimated absolute RMS force accuracy = 7.7110449e-05
  estimated relative force accuracy = 5.3550243e-06
  using double precision KISS FFT
  3d grid and FFT values/proc = 15625 5832
Generated 0 of 21 mixed pair_coeff terms from geometric mixing rule
Per MPI rank memory allocation (min/avg/max) = 9.773 | 9.773 | 9.773 Mbytes
   Step          Temp          E_pair         E_mol          TotEng         Press     
       176   4414.5127      1.4677999      1.5530395      4.1620805     -329.16506    
       177   3655.6603      1.4758377      1.751171       4.1720711     -379.2325     
Loop time of 0.00402211 on 1 procs for 1 steps with 3 atoms

run 1 pre yes post no
PPPM initialization ...
  using 12-bit tables for long-range coulomb (src/kspace.cpp:342)
  G vector (1/distance) = 0.28934131
  grid = 18 18 18
  stencil order = 5
  estimated absolute RMS force accuracy = 7.7110449e-05
  estimated relative force accuracy = 5.3550243e-06
  using double precision KISS FFT
  3d grid and FFT values/proc = 15625 5832
Generated 0 of 21 mixed pair_coeff terms from geometric mixing rule
Per MPI rank memory allocation (min/avg/max) = 9.773 | 9.773 | 9.773 Mbytes
   Step          Temp          E_pair         E_mol          TotEng         Press     
       177   3655.6603      1.4758377      1.751171       4.1720711     -379.2325     
       178   2956.693       1.4918558      1.9228966      4.1791176     -422.3755     
Loop time of 0.0029573 on 1 procs for 1 steps with 3 atoms

run 1 pre yes post no
PPPM initialization ...
  using 12-bit tables for long-range coulomb (src/kspace.cpp:342)
  G vector (1/distance) = 0.28934131
  grid = 18 18 18
  stencil order = 5
  estimated absolute RMS force accuracy = 7.7110449e-05
  estimated relative force accuracy = 5.3550243e-06
  using double precision KISS FFT
  3d grid and FFT values/proc = 15625 5832
Generated 0 of 21 mixed pair_coeff terms from geometric mixing rule
Per MPI rank memory allocation (min/avg/max) = 9.773 | 9.773 | 9.773 Mbytes
   Step          Temp          E_pair         E_mol          TotEng         Press     
       178   2956.693       1.4918558      1.9228966      4.1791176     -422.3755     
       179   2347.4816      1.5154433      2.0594065      4.1817214     -457.07176    
Loop time of 0.0028914 on 1 procs for 1 steps with 3 atoms

run 1 pre yes post no
PPPM initialization ...
  using 12-bit tables for long-range coulomb (src/kspace.cpp:342)
  G vector (1/distance) = 0.28934131
  grid = 18 18 18
  stencil order = 5
  estimated absolute RMS force accuracy = 7.7110449e-05
  estimated relative force accuracy = 5.3550243e-06
  using double precision KISS FFT
  3d grid and FFT values/proc = 15625 5832
Generated 0 of 21 mixed pair_coeff terms from geometric mixing rule
Per MPI rank memory allocation (min/avg/max) = 9.773 | 9.773 | 9.773 Mbytes
   Step          Temp          E_pair         E_mol          TotEng         Press     
       179   2347.4816      1.5154433      2.0594065      4.1817214     -457.07176    
       180   1857.4726      1.546214       2.1529072      4.1793155     -481.88679    
Loop time of 0.00271217 on 1 procs for 1 steps with 3 atoms

run 1 pre yes post no
PPPM initialization ...
  using 12-bit tables for long-range coulomb (src/kspace.cpp:342)
  G vector (1/distance) = 0.28934131
  grid = 18 18 18
  stencil order = 5
  estimated absolute RMS force accuracy = 7.7110449e-05
  estimated relative force accuracy = 5.3550243e-06
  using double precision KISS FFT
  3d grid and FFT values/proc = 15625 5832
Generated 0 of 21 mixed pair_coeff terms from geometric mixing rule
Per MPI rank memory allocation (min/avg/max) = 9.773 | 9.773 | 9.773 Mbytes
   Step          Temp          E_pair         E_mol          TotEng         Press     
       180   1857.4726      1.546214       2.1529072      4.1793155     -481.88679    
       181   1514.5469      1.5838367      2.1970646      4.1724424     -495.53354    
Loop time of 0.00241577 on 1 procs for 1 steps with 3 atoms

run 1 pre yes post no
PPPM initialization ...
  using 12-bit tables for long-range coulomb (src/kspace.cpp:342)
  G vector (1/distance) = 0.28934131
  grid = 18 18 18
  stencil order = 5
  estimated absolute RMS force accuracy = 7.7110449e-05
  estimated relative force accuracy = 5.3550243e-06
  using double precision KISS FFT
  3d grid and FFT values/proc = 15625 5832
Generated 0 of 21 mixed pair_coeff terms from geometric mixing rule
Per MPI rank memory allocation (min/avg/max) = 9.773 | 9.773 | 9.773 Mbytes
   Step          Temp          E_pair         E_mol          TotEng         Press     
       181   1514.5469      1.5838367      2.1970646      4.1724424     -495.53354    
       182   1342.4547      1.6280268      2.1875408      4.1626195     -496.97177    
Loop time of 0.00250489 on 1 procs for 1 steps with 3 atoms

run 1 pre yes post no
PPPM initialization ...
  using 12-bit tables for long-range coulomb (src/kspace.cpp:342)
  G vector (1/distance) = 0.28934131
  grid = 18 18 18
  stencil order = 5
  estimated absolute RMS force accuracy = 7.7110449e-05
  estimated relative force accuracy = 5.3550243e-06
  using double precision KISS FFT
  3d grid and FFT values/proc = 15625 5832
Generated 0 of 21 mixed pair_coeff terms from geometric mixing rule
Per MPI rank memory allocation (min/avg/max) = 9.773 | 9.773 | 9.773 Mbytes
   Step          Temp          E_pair         E_mol          TotEng         Press     
       182   1342.4547      1.6280268      2.1875408      4.1626195     -496.97177    
       183   1356.9861      1.6785157      2.1225813      4.1519054     -485.54021    
Loop time of 0.00242684 on 1 procs for 1 steps with 3 atoms

run 1 pre yes post no
PPPM initialization ...
  using 12-bit tables for long-range coulomb (src/kspace.cpp:342)
  G vector (1/distance) = 0.28934131
  grid = 18 18 18
  stencil order = 5
  estimated absolute RMS force accuracy = 7.7110449e-05
  estimated relative force accuracy = 5.3550243e-06
  using double precision KISS FFT
  3d grid and FFT values/proc = 15625 5832
Generated 0 of 21 mixed pair_coeff terms from geometric mixing rule
Per MPI rank memory allocation (min/avg/max) = 9.773 | 9.773 | 9.773 Mbytes
   Step          Temp          E_pair         E_mol          TotEng         Press     
       183   1356.9861      1.6785157      2.1225813      4.1519054     -485.54021    
       184   1561.6212      1.7349908      2.0035506      4.1422521     -461.09922    
Loop time of 0.00239929 on 1 procs for 1 steps with 3 atoms

run 1 pre yes post no
PPPM initialization ...
  using 12-bit tables for long-range coulomb (src/kspace.cpp:342)
  G vector (1/distance) = 0.28934131
  grid = 18 18 18
  stencil order = 5
  estimated absolute RMS force accuracy = 7.7110449e-05
  estimated relative force accuracy = 5.3550243e-06
  using double precision KISS FFT
  3d grid and FFT values/proc = 15625 5832
Generated 0 of 21 mixed pair_coeff terms from geometric mixing rule
Per MPI rank memory allocation (min/avg/max) = 9.773 | 9.773 | 9.773 Mbytes
   Step          Temp          E_pair         E_mol          TotEng         Press     
       184   1561.6212      1.7349908      2.0035506      4.1422521     -461.09922    
       185   1944.0872      1.7970403      1.8352707      4.1348971     -424.14368    
Loop time of 0.00245095 on 1 procs for 1 steps with 3 atoms

run 1 pre yes post no
PPPM initialization ...
  using 12-bit tables for long-range coulomb (src/kspace.cpp:342)
  G vector (1/distance) = 0.28934131
  grid = 18 18 18
  stencil order = 5
  estimated absolute RMS force accuracy = 7.7110449e-05
  estimated relative force accuracy = 5.3550243e-06
  using double precision KISS FFT
  3d grid and FFT values/proc = 15625 5832
Generated 0 of 21 mixed pair_coeff terms from geometric mixing rule
Per MPI rank memory allocation (min/avg/max) = 9.773 | 9.773 | 9.773 Mbytes
   Step          Temp          E_pair         E_mol          TotEng         Press     
       185   1944.0872      1.7970403      1.8352707      4.1348971     -424.14368    
       186   2475.4837      1.8641047      1.6260116      4.130079      -375.84013    
Loop time of 0.00290167 on 1 procs for 1 steps with 3 atoms

run 1 pre yes post no
PPPM initialization ...
  using 12-bit tables for long-range coulomb (src/kspace.cpp:342)
  G vector (1/distance) = 0.28934131
  grid = 18 18 18
  stencil order = 5
  estimated absolute RMS force accuracy = 7.7110449e-05
  estimated relative force accuracy = 5.3550243e-06
  using double precision KISS FFT
  3d grid and FFT values/proc = 15625 5832
Generated 0 of 21 mixed pair_coeff terms from geometric mixing rule
Per MPI rank memory allocation (min/avg/max) = 9.773 | 9.773 | 9.773 Mbytes
   Step          Temp          E_pair         E_mol          TotEng         Press     
       186   2475.4837      1.8641047      1.6260116      4.130079      -375.84013    
       187   3112.8267      1.9354725      1.3870527      4.127254      -317.96043    
Loop time of 0.00270241 on 1 procs for 1 steps with 3 atoms

run 1 pre yes post no
PPPM initialization ...
  using 12-bit tables for long-range coulomb (src/kspace.cpp:342)
  G vector (1/distance) = 0.28934131
  grid = 18 18 18
  stencil order = 5
  estimated absolute RMS force accuracy = 7.7110449e-05
  estimated relative force accuracy = 5.3550243e-06
  using double precision KISS FFT
  3d grid and FFT values/proc = 15625 5832
Generated 0 of 21 mixed pair_coeff terms from geometric mixing rule
Per MPI rank memory allocation (min/avg/max) = 9.773 | 9.773 | 9.773 Mbytes
   Step          Temp          E_pair         E_mol          TotEng         Press     
       187   3112.8267      1.9354725      1.3870527      4.127254      -317.96043    
       188   3804.157       2.0102985      1.1318588      4.1256091     -252.72888    
Loop time of 0.00306027 on 1 procs for 1 steps with 3 atoms

run 1 pre yes post no
PPPM initialization ...
  using 12-bit tables for long-range coulomb (src/kspace.cpp:342)
  G vector (1/distance) = 0.28934131
  grid = 18 18 18
  stencil order = 5
  estimated absolute RMS force accuracy = 7.7110449e-05
  estimated relative force accuracy = 5.3550243e-06
  using double precision KISS FFT
  3d grid and FFT values/proc = 15625 5832
Generated 0 of 21 mixed pair_coeff terms from geometric mixing rule
Per MPI rank memory allocation (min/avg/max) = 9.773 | 9.773 | 9.773 Mbytes
   Step          Temp          E_pair         E_mol          TotEng         Press     
       188   3804.157       2.0102985      1.1318588      4.1256091     -252.72888    
       189   4494.179       2.0876596      0.87502591     4.1245219     -182.63246    
Loop time of 0.00361917 on 1 procs for 1 steps with 3 atoms

run 1 pre yes post no
PPPM initialization ...
  using 12-bit tables for long-range coulomb (src/kspace.cpp:342)
  G vector (1/distance) = 0.28934131
  grid = 18 18 18
  stencil order = 5
  estimated absolute RMS force accuracy = 7.7110449e-05
  estimated relative force accuracy = 5.3550243e-06
  using double precision KISS FFT
  3d grid and FFT values/proc = 15625 5832
Generated 0 of 21 mixed pair_coeff terms from geometric mixing rule
Per MPI rank memory allocation (min/avg/max) = 9.773 | 9.773 | 9.773 Mbytes
   Step          Temp          E_pair         E_mol          TotEng         Press     
       189   4494.179       2.0876596      0.87502591     4.1245219     -182.63246    
       190   5128.911       2.1665801      0.63117351     4.1236811     -110.24321    
Loop time of 0.00327479 on 1 procs for 1 steps with 3 atoms

run 1 pre yes post no
PPPM initialization ...
  using 12-bit tables for long-range coulomb (src/kspace.cpp:342)
  G vector (1/distance) = 0.28934131
  grid = 18 18 18
  stencil order = 5
  estimated absolute RMS force accuracy = 7.7110449e-05
  estimated relative force accuracy = 5.3550243e-06
  using double precision KISS FFT
  3d grid and FFT values/proc = 15625 5832
Generated 0 of 21 mixed pair_coeff terms from geometric mixing rule
Per MPI rank memory allocation (min/avg/max) = 9.773 | 9.773 | 9.773 Mbytes
   Step          Temp          E_pair         E_mol          TotEng         Press     
       190   5128.911       2.1665801      0.63117351     4.1236811     -110.24321    
       191   5659.2348      2.2460756      0.41390297     4.1230056     -38.065609    
Loop time of 0.00288788 on 1 procs for 1 steps with 3 atoms

run 1 pre yes post no
PPPM initialization ...
  using 12-bit tables for long-range coulomb (src/kspace.cpp:342)
  G vector (1/distance) = 0.28934131
  grid = 18 18 18
  stencil order = 5
  estimated absolute RMS force accuracy = 7.7110449e-05
  estimated relative force accuracy = 5.3550243e-06
  using double precision KISS FFT
  3d grid and FFT values/proc = 15625 5832
Generated 0 of 21 mixed pair_coeff terms from geometric mixing rule
Per MPI rank memory allocation (min/avg/max) = 9.773 | 9.773 | 9.773 Mbytes
   Step          Temp          E_pair         E_mol          TotEng         Press     
       191   5659.2348      2.2460756      0.41390297     4.1230056     -38.065609    
       192   6043.8712      2.3251662      0.23487589     4.1225054      31.593882    
Loop time of 0.00277647 on 1 procs for 1 steps with 3 atoms

run 1 pre yes post no
PPPM initialization ...
  using 12-bit tables for long-range coulomb (src/kspace.cpp:342)
  G vector (1/distance) = 0.28934131
  grid = 18 18 18
  stencil order = 5
  estimated absolute RMS force accuracy = 7.7110449e-05
  estimated relative force accuracy = 5.3550243e-06
  using double precision KISS FFT
  3d grid and FFT values/proc = 15625 5832
Generated 0 of 21 mixed pair_coeff terms from geometric mixing rule
Per MPI rank memory allocation (min/avg/max) = 9.773 | 9.773 | 9.773 Mbytes
   Step          Temp          E_pair         E_mol          TotEng         Press     
       192   6043.8712      2.3251662      0.23487589     4.1225054      31.593882    
       193   6251.988       2.4028936      0.103049       4.1222084      96.739245    
Loop time of 0.00312067 on 1 procs for 1 steps with 3 atoms

run 1 pre yes post no
PPPM initialization ...
  using 12-bit tables for long-range coulomb (src/kspace.cpp:342)
  G vector (1/distance) = 0.28934131
  grid = 18 18 18
  stencil order = 5
  estimated absolute RMS force accuracy = 7.7110449e-05
  estimated relative force accuracy = 5.3550243e-06
  using double precision KISS FFT
  3d grid and FFT values/proc = 15625 5832
Generated 0 of 21 mixed pair_coeff terms from geometric mixing rule
Per MPI rank memory allocation (min/avg/max) = 9.773 | 9.773 | 9.773 Mbytes
   Step          Temp          E_pair         E_mol          TotEng         Press     
       193   6251.988       2.4028936      0.103049       4.1222084      96.739245    
       194   6265.2521      2.4783375      0.024102591    4.1221349      155.77465    
Loop time of 0.00256811 on 1 procs for 1 steps with 3 atoms

run 1 pre yes post no
PPPM initialization ...
  using 12-bit tables for long-range coulomb (src/kspace.cpp:342)
  G vector (1/distance) = 0.28934131
  grid = 18 18 18
  stencil order = 5
  estimated absolute RMS force accuracy = 7.7110449e-05
  estimated relative force accuracy = 5.3550243e-06
  using double precision KISS FFT
  3d grid and FFT values/proc = 15625 5832
Generated 0 of 21 mixed pair_coeff terms from geometric mixing rule
Per MPI rank memory allocation (min/avg/max) = 9.773 | 9.773 | 9.773 Mbytes
   Step          Temp          E_pair         E_mol          TotEng         Press     
       194   6265.2521      2.4783375      0.024102591    4.1221349      155.77465    
       195   6079.0823      2.5506271      9.6518244e-05  4.1222898      207.56522    
Loop time of 0.0029897 on 1 procs for 1 steps with 3 atoms

run 1 pre yes post no
PPPM initialization ...
  using 12-bit tables for long-range coulomb (src/kspace.cpp:342)
  G vector (1/distance) = 0.28934131
  grid = 18 18 18
  stencil order = 5
  estimated absolute RMS force accuracy = 7.7110449e-05
  estimated relative force accuracy = 5.3550243e-06
  using double precision KISS FFT
  3d grid and FFT values/proc = 15625 5832
Generated 0 of 21 mixed pair_coeff terms from geometric mixing rule
Per MPI rank memory allocation (min/avg/max) = 9.773 | 9.773 | 9.773 Mbytes
   Step          Temp          E_pair         E_mol          TotEng         Press     
       195   6079.0823      2.5506271      9.6518244e-05  4.1222898      207.56522    
       196   5702.9626      2.6189537      0.029376198    4.1226614      251.46518    
Loop time of 0.00117183 on 1 procs for 1 steps with 3 atoms

run 1 pre yes post no
PPPM initialization ...
  using 12-bit tables for long-range coulomb (src/kspace.cpp:342)
  G vector (1/distance) = 0.28934131
  grid = 18 18 18
  stencil order = 5
  estimated absolute RMS force accuracy = 7.7110449e-05
  estimated relative force accuracy = 5.3550243e-06
  using double precision KISS FFT
  3d grid and FFT values/proc = 15625 5832
Generated 0 of 21 mixed pair_coeff terms from geometric mixing rule
Per MPI rank memory allocation (min/avg/max) = 9.773 | 9.773 | 9.773 Mbytes
   Step          Temp          E_pair         E_mol          TotEng         Press     
       196   5702.9626      2.6189537      0.029376198    4.1226614      251.46518    
       197   5159.7862      2.6825824      0.10673394     4.1232258      287.31226    
Loop time of 0.00117004 on 1 procs for 1 steps with 3 atoms

run 1 pre yes post no
PPPM initialization ...
  using 12-bit tables for long-range coulomb (src/kspace.cpp:342)
  G vector (1/distance) = 0.28934131
  grid = 18 18 18
  stencil order = 5
  estimated absolute RMS force accuracy = 7.7110449e-05
  estimated relative force accuracy = 5.3550243e-06
  using double precision KISS FFT
  3d grid and FFT values/proc = 15625 5832
Generated 0 of 21 mixed pair_coeff terms from geometric mixing rule
Per MPI rank memory allocation (min/avg/max) = 9.773 | 9.773 | 9.773 Mbytes
   Step          Temp          E_pair         E_mol          TotEng         Press     
       197   5159.7862      2.6825824      0.10673394     4.1232258      287.31226    
       198   4484.2728      2.7408544      0.22381361     4.1239435      315.38935    
Loop time of 0.00116974 on 1 procs for 1 steps with 3 atoms

run 1 pre yes post no
PPPM initialization ...
  using 12-bit tables for long-range coulomb (src/kspace.cpp:342)
  G vector (1/distance) = 0.28934131
  grid = 18 18 18
  stencil order = 5
  estimated absolute RMS force accuracy = 7.7110449e-05
  estimated relative force accuracy = 5.3550243e-06
  using double precision KISS FFT
  3d grid and FFT values/proc = 15625 5832
Generated 0 of 21 mixed pair_coeff terms from geometric mixing rule
Per MPI rank memory allocation (min/avg/max) = 9.773 | 9.773 | 9.773 Mbytes
   Step          Temp          E_pair         E_mol          TotEng         Press     
       198   4484.2728      2.7408544      0.22381361     4.1239435      315.38935    
       199   3720.5734      2.7931912      0.3697298      4.1247647      336.35751    
Loop time of 0.00120259 on 1 procs for 1 steps with 3 atoms

run 1 pre yes post no
PPPM initialization ...
  using 12-bit tables for long-range coulomb (src/kspace.cpp:342)
  G vector (1/distance) = 0.28934131
  grid = 18 18 18
  stencil order = 5
  estimated absolute RMS force accuracy = 7.7110449e-05
  estimated relative force accuracy = 5.3550243e-06
  using double precision KISS FFT
  3d grid and FFT values/proc = 15625 5832
Generated 0 of 21 mixed pair_coeff terms from geometric mixing rule
Per MPI rank memory allocation (min/avg/max) = 9.773 | 9.773 | 9.773 Mbytes
   Step          Temp          E_pair         E_mol          TotEng         Press     
       199   3720.5734      2.7931912      0.3697298      4.1247647      336.35751    
       200   2919.2276      2.8390956      0.53185769     4.1256328      351.16568    
Loop time of 0.00128609 on 1 procs for 1 steps with 3 atoms

run 1 pre yes post no
PPPM initialization ...
  using 12-bit tables for long-range coulomb (src/kspace.cpp:342)
  G vector (1/distance) = 0.28934131
  grid = 18 18 18
  stencil order = 5
  estimated absolute RMS force accuracy = 7.7110449e-05
  estimated relative force accuracy = 5.3550243e-06
  using double precision KISS FFT
  3d grid and FFT values/proc = 15625 5832
Generated 0 of 21 mixed pair_coeff terms from geometric mixing rule
Per MPI rank memory allocation (min/avg/max) = 9.773 | 9.773 | 9.773 Mbytes
   Step          Temp          E_pair         E_mol          TotEng         Press     
       200   2919.2276      2.8390956      0.53185769     4.1256328      351.16568    
       201   2133.6847      2.8781495      0.69673851     4.1264888      360.94404    
Loop time of 0.00114397 on 1 procs for 1 steps with 3 atoms

run 1 pre yes post no
PPPM initialization ...
  using 12-bit tables for long-range coulomb (src/kspace.cpp:342)
  G vector (1/distance) = 0.28934131
  grid = 18 18 18
  stencil order = 5
  estimated absolute RMS force accuracy = 7.7110449e-05
  estimated relative force accuracy = 5.3550243e-06
  using double precision KISS FFT
  3d grid and FFT values/proc = 15625 5832
Generated 0 of 21 mixed pair_coeff terms from geometric mixing rule
Per MPI rank memory allocation (min/avg/max) = 9.773 | 9.773 | 9.773 Mbytes
   Step          Temp          E_pair         E_mol          TotEng         Press     
       201   2133.6847      2.8781495      0.69673851     4.1264888      360.94404    
       202   1416.6295      2.9100085      0.85103744     4.1272734      366.88915    
Loop time of 0.00112687 on 1 procs for 1 steps with 3 atoms

run 1 pre yes post no
PPPM initialization ...
  using 12-bit tables for long-range coulomb (src/kspace.cpp:342)
  G vector (1/distance) = 0.28934131
  grid = 18 18 18
  stencil order = 5
  estimated absolute RMS force accuracy = 7.7110449e-05
  estimated relative force accuracy = 5.3550243e-06
  using double precision KISS FFT
  3d grid and FFT values/proc = 15625 5832
Generated 0 of 21 mixed pair_coeff terms from geometric mixing rule
Per MPI rank memory allocation (min/avg/max) = 9.773 | 9.773 | 9.773 Mbytes
   Step          Temp          E_pair         E_mol          TotEng         Press     
       202   1416.6295      2.9100085      0.85103744     4.1272734      366.88915    
       203   816.36384      2.9343987      0.98248772     4.127933       370.1496     
Loop time of 0.0011634 on 1 procs for 1 steps with 3 atoms

run 1 pre yes post no
PPPM initialization ...
  using 12-bit tables for long-range coulomb (src/kspace.cpp:342)
  G vector (1/distance) = 0.28934131
  grid = 18 18 18
  stencil order = 5
  estimated absolute RMS force accuracy = 7.7110449e-05
  estimated relative force accuracy = 5.3550243e-06
  using double precision KISS FFT
  3d grid and FFT values/proc = 15625 5832
Generated 0 of 21 mixed pair_coeff terms from geometric mixing rule
Per MPI rank memory allocation (min/avg/max) = 9.773 | 9.773 | 9.773 Mbytes
   Step          Temp          E_pair         E_mol          TotEng         Press     
       203   816.36384      2.9343987      0.98248772     4.127933       370.1496     
       204   373.49237      2.9511116      1.080756       4.1284229      371.72026    
Loop time of 0.00115782 on 1 procs for 1 steps with 3 atoms

run 1 pre yes post no
PPPM initialization ...
  using 12-bit tables for long-range coulomb (src/kspace.cpp:342)
  G vector (1/distance) = 0.28934131
  grid = 18 18 18
  stencil order = 5
  estimated absolute RMS force accuracy = 7.7110449e-05
  estimated relative force accuracy = 5.3550243e-06
  using double precision KISS FFT
  3d grid and FFT values/proc = 15625 5832
Generated 0 of 21 mixed pair_coeff terms from geometric mixing rule
Per MPI rank memory allocation (min/avg/max) = 9.773 | 9.773 | 9.773 Mbytes
   Step          Temp          E_pair         E_mol          TotEng         Press     
       204   373.49237      2.9511116      1.080756       4.1284229      371.72026    
       205   118.13776      2.9599979      1.1381697      4.1287086      372.35292    
Loop time of 0.0011818 on 1 procs for 1 steps with 3 atoms

run 1 pre yes post no
PPPM initialization ...
  using 12-bit tables for long-range coulomb (src/kspace.cpp:342)
  G vector (1/distance) = 0.28934131
  grid = 18 18 18
  stencil order = 5
  estimated absolute RMS force accuracy = 7.7110449e-05
  estimated relative force accuracy = 5.3550243e-06
  using double precision KISS FFT
  3d grid and FFT values/proc = 15625 5832
Generated 0 of 21 mixed pair_coeff terms from geometric mixing rule
Per MPI rank memory allocation (min/avg/max) = 9.773 | 9.773 | 9.773 Mbytes
   Step          Temp          E_pair         E_mol          TotEng         Press     
       205   118.13776      2.9599979      1.1381697      4.1287086      372.35292    
       206   67.874095      2.9609666      1.1502568      4.1287702      372.4898     
Loop time of 0.00113416 on 1 procs for 1 steps with 3 atoms

run 1 pre yes post no
PPPM initialization ...
  using 12-bit tables for long-range coulomb (src/kspace.cpp:342)
  G vector (1/distance) = 0.28934131
  grid = 18 18 18
  stencil order = 5
  estimated absolute RMS force accuracy = 7.7110449e-05
  estimated relative force accuracy = 5.3550243e-06
  using double precision KISS FFT
  3d grid and FFT values/proc = 15625 5832
Generated 0 of 21 mixed pair_coeff terms from geometric mixing rule
Per MPI rank memory allocation (min/avg/max) = 9.773 | 9.773 | 9.773 Mbytes
   Step          Temp          E_pair         E_mol          TotEng         Press     
       206   67.874095      2.9609666      1.1502568      4.1287702      372.4898     
       207   226.51822      2.9539831      1.1160616      4.1286043      372.2247     
Loop time of 0.00117662 on 1 procs for 1 steps with 3 atoms

run 1 pre yes post no
PPPM initialization ...
  using 12-bit tables for long-range coulomb (src/kspace.cpp:342)
  G vector (1/distance) = 0.28934131
  grid = 18 18 18
  stencil order = 5
  estimated absolute RMS force accuracy = 7.7110449e-05
  estimated relative force accuracy = 5.3550243e-06
  using double precision KISS FFT
  3d grid and FFT values/proc = 15625 5832
Generated 0 of 21 mixed pair_coeff terms from geometric mixing rule
Per MPI rank memory allocation (min/avg/max) = 9.773 | 9.773 | 9.773 Mbytes
   Step          Temp          E_pair         E_mol          TotEng         Press     
       207   226.51822      2.9539831      1.1160616      4.1286043      372.2247     
       208   583.86074      2.939067       1.0382149      4.1282217      371.29428    
Loop time of 0.00112659 on 1 procs for 1 steps with 3 atoms

run 1 pre yes post no
PPPM initialization ...
  using 12-bit tables for long-range coulomb (src/kspace.cpp:342)
  G vector (1/distance) = 0.28934131
  grid = 18 18 18
  stencil order = 5
  estimated absolute RMS force accuracy = 7.7110449e-05
  estimated relative force accuracy = 5.3550243e-06
  using double precision KISS FFT
  3d grid and FFT values/proc = 15625 5832
Generated 0 of 21 mixed pair_coeff terms from geometric mixing rule
Per MPI rank memory allocation (min/avg/max) = 9.773 | 9.773 | 9.773 Mbytes
   Step          Temp          E_pair         E_mol          TotEng         Press     
       208   583.86074      2.939067       1.0382149      4.1282217      371.29428    
       209   1116.3559      2.9162942      0.92275342     4.1276483      369.1005     
Loop time of 0.0012283 on 1 procs for 1 steps with 3 atoms

run 1 pre yes post no
PPPM initialization ...
  using 12-bit tables for long-range coulomb (src/kspace.cpp:342)
  G vector (1/distance) = 0.28934131
  grid = 18 18 18
  stencil order = 5
  estimated absolute RMS force accuracy = 7.7110449e-05
  estimated relative force accuracy = 5.3550243e-06
  using double precision KISS FFT
  3d grid and FFT values/proc = 15625 5832
Generated 0 of 21 mixed pair_coeff terms from geometric mixing rule
Per MPI rank memory allocation (min/avg/max) = 9.773 | 9.773 | 9.773 Mbytes
   Step          Temp          E_pair         E_mol          TotEng         Press     
       209   1116.3559      2.9162942      0.92275342     4.1276483      369.1005     
       210   1788.7248      2.8858011      0.77870046     4.1269233      364.7625     
Loop time of 0.00113504 on 1 procs for 1 steps with 3 atoms

run 1 pre yes post no
PPPM initialization ...
  using 12-bit tables for long-range coulomb (src/kspace.cpp:342)
  G vector (1/distance) = 0.28934131
  grid = 18 18 18
  stencil order = 5
  estimated absolute RMS force accuracy = 7.7110449e-05
  estimated relative force accuracy = 5.3550243e-06
  using double precision KISS FFT
  3d grid and FFT values/proc = 15625 5832
Generated 0 of 21 mixed pair_coeff terms from geometric mixing rule
Per MPI rank memory allocation (min/avg/max) = 9.773 | 9.773 | 9.773 Mbytes
   Step          Temp          E_pair         E_mol          TotEng         Press     
       210   1788.7248      2.8858011      0.77870046     4.1269233      364.7625     
       211   2556.3648      2.8477884      0.61743601     4.1260965      357.19423    
Loop time of 0.00134926 on 1 procs for 1 steps with 3 atoms

run 1 pre yes post no
PPPM initialization ...
  using 12-bit tables for long-range coulomb (src/kspace.cpp:342)
  G vector (1/distance) = 0.28934131
  grid = 18 18 18
  stencil order = 5
  estimated absolute RMS force accuracy = 7.7110449e-05
  estimated relative force accuracy = 5.3550243e-06
  using double precision KISS FFT
  3d grid and FFT values/proc = 15625 5832
Generated 0 of 21 mixed pair_coeff terms from geometric mixing rule
Per MPI rank memory allocation (min/avg/max) = 9.773 | 9.773 | 9.773 Mbytes
   Step          Temp          E_pair         E_mol          TotEng         Press     
       211   2556.3648      2.8477884      0.61743601     4.1260965      357.19423    
       212   3368.4023      2.8025249      0.45189864     4.1252239      345.20225    
Loop time of 0.00112097 on 1 procs for 1 steps with 3 atoms

run 1 pre yes post no
PPPM initialization ...
  using 12-bit tables for long-range coulomb (src/kspace.cpp:342)
  G vector (1/distance) = 0.28934131
  grid = 18 18 18
  stencil order = 5
  estimated absolute RMS force accuracy = 7.7110449e-05
  estimated relative force accuracy = 5.3550243e-06
  using double precision KISS FFT
  3d grid and FFT values/proc = 15625 5832
Generated 0 of 21 mixed pair_coeff terms from geometric mixing rule
Per MPI rank memory allocation (min/avg/max) = 9.773 | 9.773 | 9.773 Mbytes
   Step          Temp          E_pair         E_mol          TotEng         Press     
       212   3368.4023      2.8025249      0.45189864     4.1252239      345.20225    
       213   4171.1817      2.750357       0.29567372     4.1243658      327.59694    
Loop time of 0.00114054 on 1 procs for 1 steps with 3 atoms

run 1 pre yes post no
PPPM initialization ...
  using 12-bit tables for long-range coulomb (src/kspace.cpp:342)
  G vector (1/distance) = 0.28934131
  grid = 18 18 18
  stencil order = 5
  estimated absolute RMS force accuracy = 7.7110449e-05
  estimated relative force accuracy = 5.3550243e-06
  using double precision KISS FFT
  3d grid and FFT values/proc = 15625 5832
Generated 0 of 21 mixed pair_coeff terms from geometric mixing rule
Per MPI rank memory allocation (min/avg/max) = 9.773 | 9.773 | 9.773 Mbytes
   Step          Temp          E_pair         E_mol          TotEng         Press     
       213   4171.1817      2.750357       0.29567372     4.1243658      327.59694    
       214   4911.9498      2.6917116      0.16203083     4.1235811      303.30863    
Loop time of 0.00116919 on 1 procs for 1 steps with 3 atoms

run 1 pre yes post no
PPPM initialization ...
  using 12-bit tables for long-range coulomb (src/kspace.cpp:342)
  G vector (1/distance) = 0.28934131
  grid = 18 18 18
  stencil order = 5
  estimated absolute RMS force accuracy = 7.7110449e-05
  estimated relative force accuracy = 5.3550243e-06
  using double precision KISS FFT
  3d grid and FFT values/proc = 15625 5832
Generated 0 of 21 mixed pair_coeff terms from geometric mixing rule
Per MPI rank memory allocation (min/avg/max) = 9.773 | 9.773 | 9.773 Mbytes
   Step          Temp          E_pair         E_mol          TotEng         Press     
       214   4911.9498      2.6917116      0.16203083     4.1235811      303.30863    
       215   5542.4844      2.6271025      0.062976915    4.1229241      271.50033    
Loop time of 0.00148857 on 1 procs for 1 steps with 3 atoms

run 1 pre yes post no
PPPM initialization ...
  using 12-bit tables for long-range coulomb (src/kspace.cpp:342)
  G vector (1/distance) = 0.28934131
  grid = 18 18 18
  stencil order = 5
  estimated absolute RMS force accuracy = 7.7110449e-05
  estimated relative force accuracy = 5.3550243e-06
  using double precision KISS FFT
  3d grid and FFT values/proc = 15625 5832
Generated 0 of 21 mixed pair_coeff terms from geometric mixing rule
Per MPI rank memory allocation (min/avg/max) = 9.773 | 9.773 | 9.773 Mbytes
   Step          Temp          E_pair         E_mol          TotEng         Press     
       215   5542.4844      2.6271025      0.062976915    4.1229241      271.50033    
       216   6022.4135      2.5571331      0.0083909872   4.1224401      231.6685     
Loop time of 0.00129342 on 1 procs for 1 steps with 3 atoms

run 1 pre yes post no
PPPM initialization ...
  using 12-bit tables for long-range coulomb (src/kspace.cpp:342)
  G vector (1/distance) = 0.28934131
  grid = 18 18 18
  stencil order = 5
  estimated absolute RMS force accuracy = 7.7110449e-05
  estimated relative force accuracy = 5.3550243e-06
  using double precision KISS FFT
  3d grid and FFT values/proc = 15625 5832
Generated 0 of 21 mixed pair_coeff terms from geometric mixing rule
Per MPI rank memory allocation (min/avg/max) = 9.773 | 9.773 | 9.773 Mbytes
   Step          Temp          E_pair         E_mol          TotEng         Press     
       216   6022.4135      2.5571331      0.0083909872   4.1224401      231.6685     
       217   6321.9967      2.4824955      0.0053010778   4.122161       183.72417    
Loop time of 0.00149697 on 1 procs for 1 steps with 3 atoms

run 1 pre yes post no
PPPM initialization ...
  using 12-bit tables for long-range coulomb (src/kspace.cpp:342)
  G vector (1/distance) = 0.28934131
  grid = 18 18 18
  stencil order = 5
  estimated absolute RMS force accuracy = 7.7110449e-05
  estimated relative force accuracy = 5.3550243e-06
  using double precision KISS FFT
  3d grid and FFT values/proc = 15625 5832
Generated 0 of 21 mixed pair_coeff terms from geometric mixing rule
Per MPI rank memory allocation (min/avg/max) = 9.773 | 9.773 | 9.773 Mbytes
   Step          Temp          E_pair         E_mol          TotEng         Press     
       217   6321.9967      2.4824955      0.0053010778   4.122161       183.72417    
       218   6424.1752      2.4039733      0.057354008    4.1221069      128.04802    
Loop time of 0.00471513 on 1 procs for 1 steps with 3 atoms

run 1 pre yes post no
PPPM initialization ...
  using 12-bit tables for long-range coulomb (src/kspace.cpp:342)
  G vector (1/distance) = 0.28934131
  grid = 18 18 18
  stencil order = 5
  estimated absolute RMS force accuracy = 7.7110449e-05
  estimated relative force accuracy = 5.3550243e-06
  using double precision KISS FFT
  3d grid and FFT values/proc = 15625 5832
Generated 0 of 21 mixed pair_coeff terms from geometric mixing rule
Per MPI rank memory allocation (min/avg/max) = 9.773 | 9.773 | 9.773 Mbytes
   Step          Temp          E_pair         E_mol          TotEng         Press     
       218   6424.1752      2.4039733      0.057354008    4.1221069      128.04802    
       219   6325.7461      2.3224317      0.16451555     4.122281       65.514406    
Loop time of 0.00391206 on 1 procs for 1 steps with 3 atoms

run 1 pre yes post no
PPPM initialization ...
  using 12-bit tables for long-range coulomb (src/kspace.cpp:342)
  G vector (1/distance) = 0.28934131
  grid = 18 18 18
  stencil order = 5
  estimated absolute RMS force accuracy = 7.7110449e-05
  estimated relative force accuracy = 5.3550243e-06
  using double precision KISS FFT
  3d grid and FFT values/proc = 15625 5832
Generated 0 of 21 mixed pair_coeff terms from geometric mixing rule
Per MPI rank memory allocation (min/avg/max) = 9.773 | 9.773 | 9.773 Mbytes
   Step          Temp          E_pair         E_mol          TotEng         Press     
       219   6325.7461      2.3224317      0.16451555     4.122281       65.514406    
       220   6037.583       2.2388119      0.32302244     4.122672      -2.5179433    
Loop time of 0.00293991 on 1 procs for 1 steps with 3 atoms

run 1 pre yes post no
PPPM initialization ...
  using 12-bit tables for long-range coulomb (src/kspace.cpp:342)
  G vector (1/distance) = 0.28934131
  grid = 18 18 18
  stencil order = 5
  estimated absolute RMS force accuracy = 7.7110449e-05
  estimated relative force accuracy = 5.3550243e-06
  using double precision KISS FFT
  3d grid and FFT values/proc = 15625 5832
Generated 0 of 21 mixed pair_coeff terms from geometric mixing rule
Per MPI rank memory allocation (min/avg/max) = 9.773 | 9.773 | 9.773 Mbytes
   Step          Temp          E_pair         E_mol          TotEng         Press     
       220   6037.583       2.2388119      0.32302244     4.122672      -2.5179433    
       221   5583.8939      2.154117       0.52559042     4.1232573     -74.249253    
Loop time of 0.00317706 on 1 procs for 1 steps with 3 atoms

run 1 pre yes post no
PPPM initialization ...
  using 12-bit tables for long-range coulomb (src/kspace.cpp:342)
  G vector (1/distance) = 0.28934131
  grid = 18 18 18
  stencil order = 5
  estimated absolute RMS force accuracy = 7.7110449e-05
  estimated relative force accuracy = 5.3550243e-06
  using double precision KISS FFT
  3d grid and FFT values/proc = 15625 5832
Generated 0 of 21 mixed pair_coeff terms from geometric mixing rule
Per MPI rank memory allocation (min/avg/max) = 9.773 | 9.773 | 9.773 Mbytes
   Step          Temp          E_pair         E_mol          TotEng         Press     
       221   5583.8939      2.154117       0.52559042     4.1232573     -74.249253    
       222   5000.6265      2.0693999      0.76186514     4.1240285     -147.51277    
Loop time of 0.00400963 on 1 procs for 1 steps with 3 atoms

run 1 pre yes post no
PPPM initialization ...
  using 12-bit tables for long-range coulomb (src/kspace.cpp:342)
  G vector (1/distance) = 0.28934131
  grid = 18 18 18
  stencil order = 5
  estimated absolute RMS force accuracy = 7.7110449e-05
  estimated relative force accuracy = 5.3550243e-06
  using double precision KISS FFT
  3d grid and FFT values/proc = 15625 5832
Generated 0 of 21 mixed pair_coeff terms from geometric mixing rule
Per MPI rank memory allocation (min/avg/max) = 9.773 | 9.773 | 9.773 Mbytes
   Step          Temp          E_pair         E_mol          TotEng         Press     
       222   5000.6265      2.0693999      0.76186514     4.1240285     -147.51277    
       223   4333.2792      1.9857432      1.0190896      4.1250734     -219.87441    
Loop time of 0.00274251 on 1 procs for 1 steps with 3 atoms

run 1 pre yes post no
PPPM initialization ...
  using 12-bit tables for long-range coulomb (src/kspace.cpp:342)
  G vector (1/distance) = 0.28934131
  grid = 18 18 18
  stencil order = 5
  estimated absolute RMS force accuracy = 7.7110449e-05
  estimated relative force accuracy = 5.3550243e-06
  using double precision KISS FFT
  3d grid and FFT values/proc = 15625 5832
Generated 0 of 21 mixed pair_coeff terms from geometric mixing rule
Per MPI rank memory allocation (min/avg/max) = 9.773 | 9.773 | 9.773 Mbytes
   Step          Temp          E_pair         E_mol          TotEng         Press     
       223   4333.2792      1.9857432      1.0190896      4.1250734     -219.87441    
       224   3634.4088      1.9042402      1.2829594      4.126768      -288.75199    
Loop time of 0.00257222 on 1 procs for 1 steps with 3 atoms

run 1 pre yes post no
PPPM initialization ...
  using 12-bit tables for long-range coulomb (src/kspace.cpp:342)
  G vector (1/distance) = 0.28934131
  grid = 18 18 18
  stencil order = 5
  estimated absolute RMS force accuracy = 7.7110449e-05
  estimated relative force accuracy = 5.3550243e-06
  using double precision KISS FFT
  3d grid and FFT values/proc = 15625 5832
Generated 0 of 21 mixed pair_coeff terms from geometric mixing rule
Per MPI rank memory allocation (min/avg/max) = 9.773 | 9.773 | 9.773 Mbytes
   Step          Temp          E_pair         E_mol          TotEng         Press     
       224   3634.4088      1.9042402      1.2829594      4.126768      -288.75199    
       225   2960.6542      1.8259497      1.538646       4.1299849     -351.55992    
Loop time of 0.00255883 on 1 procs for 1 steps with 3 atoms

run 1 pre yes post no
PPPM initialization ...
  using 12-bit tables for long-range coulomb (src/kspace.cpp:342)
  G vector (1/distance) = 0.28934131
  grid = 18 18 18
  stencil order = 5
  estimated absolute RMS force accuracy = 7.7110449e-05
  estimated relative force accuracy = 5.3550243e-06
  using double precision KISS FFT
  3d grid and FFT values/proc = 15625 5832
Generated 0 of 21 mixed pair_coeff terms from geometric mixing rule
Per MPI rank memory allocation (min/avg/max) = 9.773 | 9.773 | 9.773 Mbytes
   Step          Temp          E_pair         E_mol          TotEng         Press     
       225   2960.6542      1.8259497      1.538646       4.1299849     -351.55992    
       226   2368.3314      1.7518394      1.7719606      4.1360618     -405.89398    
Loop time of 0.0025406 on 1 procs for 1 steps with 3 atoms

run 1 pre yes post no
PPPM initialization ...
  using 12-bit tables for long-range coulomb (src/kspace.cpp:342)
  G vector (1/distance) = 0.28934131
  grid = 18 18 18
  stencil order = 5
  estimated absolute RMS force accuracy = 7.7110449e-05
  estimated relative force accuracy = 5.3550243e-06
  using double precision KISS FFT
  3d grid and FFT values/proc = 15625 5832
Generated 0 of 21 mixed pair_coeff terms from geometric mixing rule
Per MPI rank memory allocation (min/avg/max) = 9.773 | 9.773 | 9.773 Mbytes
   Step          Temp          E_pair         E_mol          TotEng         Press     
       226   2368.3314      1.7518394      1.7719606      4.1360618     -405.89398    
       227   1907.0232      1.6827169      1.9705545      4.1462757     -449.75392    
Loop time of 0.0025448 on 1 procs for 1 steps with 3 atoms

run 1 pre yes post no
PPPM initialization ...
  using 12-bit tables for long-range coulomb (src/kspace.cpp:342)
  G vector (1/distance) = 0.28934131
  grid = 18 18 18
  stencil order = 5
  estimated absolute RMS force accuracy = 7.7110449e-05
  estimated relative force accuracy = 5.3550243e-06
  using double precision KISS FFT
  3d grid and FFT values/proc = 15625 5832
Generated 0 of 21 mixed pair_coeff terms from geometric mixing rule
Per MPI rank memory allocation (min/avg/max) = 9.773 | 9.773 | 9.773 Mbytes
   Step          Temp          E_pair         E_mol          TotEng         Press     
       227   1907.0232      1.6827169      1.9705545      4.1462757     -449.75392    
       228   1612.6377      1.6191637      2.1249432      4.1610065     -481.75193    
Loop time of 0.00272284 on 1 procs for 1 steps with 3 atoms

run 1 pre yes post no
PPPM initialization ...
  using 12-bit tables for long-range coulomb (src/kspace.cpp:342)
  G vector (1/distance) = 0.28934131
  grid = 18 18 18
  stencil order = 5
  estimated absolute RMS force accuracy = 7.7110449e-05
  estimated relative force accuracy = 5.3550243e-06
  using double precision KISS FFT
  3d grid and FFT values/proc = 15625 5832
Generated 0 of 21 mixed pair_coeff terms from geometric mixing rule
Per MPI rank memory allocation (min/avg/max) = 9.773 | 9.773 | 9.773 Mbytes
   Step          Temp          E_pair         E_mol          TotEng         Press     
       228   1612.6377      1.6191637      2.1249432      4.1610065     -481.75193    
       229   1502.9538      1.5615358      2.2291179      4.1791977     -501.22755    
Loop time of 0.00251964 on 1 procs for 1 steps with 3 atoms

run 1 pre yes post no
PPPM initialization ...
  using 12-bit tables for long-range coulomb (src/kspace.cpp:342)
  G vector (1/distance) = 0.28934131
  grid = 18 18 18
  stencil order = 5
  estimated absolute RMS force accuracy = 7.7110449e-05
  estimated relative force accuracy = 5.3550243e-06
  using double precision KISS FFT
  3d grid and FFT values/proc = 15625 5832
Generated 0 of 21 mixed pair_coeff terms from geometric mixing rule
Per MPI rank memory allocation (min/avg/max) = 9.773 | 9.773 | 9.773 Mbytes
   Step          Temp          E_pair         E_mol          TotEng         Press     
       229   1502.9538      1.5615358      2.2291179      4.1791977     -501.22755    
       230   1577.5611      1.5100012      2.2806367      4.1984694     -508.23001    
Loop time of 0.00254954 on 1 procs for 1 steps with 3 atoms

run 1 pre yes post no
PPPM initialization ...
  using 12-bit tables for long-range coulomb (src/kspace.cpp:342)
  G vector (1/distance) = 0.28934131
  grid = 18 18 18
  stencil order = 5
  estimated absolute RMS force accuracy = 7.7110449e-05
  estimated relative force accuracy = 5.3550243e-06
  using double precision KISS FFT
  3d grid and FFT values/proc = 15625 5832
Generated 0 of 21 mixed pair_coeff terms from geometric mixing rule
Per MPI rank memory allocation (min/avg/max) = 9.773 | 9.773 | 9.773 Mbytes
   Step          Temp          E_pair         E_mol          TotEng         Press     
       230   1577.5611      1.5100012      2.2806367      4.1984694     -508.23001    
       231   1821.5642      1.4646292      2.2802614      4.2158019     -503.39117    
Loop time of 0.0025615 on 1 procs for 1 steps with 3 atoms

run 1 pre yes post no
PPPM initialization ...
  using 12-bit tables for long-range coulomb (src/kspace.cpp:342)
  G vector (1/distance) = 0.28934131
  grid = 18 18 18
  stencil order = 5
  estimated absolute RMS force accuracy = 7.7110449e-05
  estimated relative force accuracy = 5.3550243e-06
  using double precision KISS FFT
  3d grid and FFT values/proc = 15625 5832
Generated 0 of 21 mixed pair_coeff terms from geometric mixing rule
Per MPI rank memory allocation (min/avg/max) = 9.773 | 9.773 | 9.773 Mbytes
   Step          Temp          E_pair         E_mol          TotEng         Press     
       231   1821.5642      1.4646292      2.2802614      4.2158019     -503.39117    
       232   2210.9182      1.4254752      2.2313213      4.2283636     -487.74975    
Loop time of 0.00293445 on 1 procs for 1 steps with 3 atoms

run 1 pre yes post no
PPPM initialization ...
  using 12-bit tables for long-range coulomb (src/kspace.cpp:342)
  G vector (1/distance) = 0.28934131
  grid = 18 18 18
  stencil order = 5
  estimated absolute RMS force accuracy = 7.7110449e-05
  estimated relative force accuracy = 5.3550243e-06
  using double precision KISS FFT
  3d grid and FFT values/proc = 15625 5832
Generated 0 of 21 mixed pair_coeff terms from geometric mixing rule
Per MPI rank memory allocation (min/avg/max) = 9.773 | 9.773 | 9.773 Mbytes
   Step          Temp          E_pair         E_mol          TotEng         Press     
       232   2210.9182      1.4254752      2.2313213      4.2283636     -487.74975    
       233   2717.433       1.3926535      2.1389946      4.2341597     -462.58057    
Loop time of 0.00258703 on 1 procs for 1 steps with 3 atoms

run 1 pre yes post no
PPPM initialization ...
  using 12-bit tables for long-range coulomb (src/kspace.cpp:342)
  G vector (1/distance) = 0.28934131
  grid = 18 18 18
  stencil order = 5
  estimated absolute RMS force accuracy = 7.7110449e-05
  estimated relative force accuracy = 5.3550243e-06
  using double precision KISS FFT
  3d grid and FFT values/proc = 15625 5832
Generated 0 of 21 mixed pair_coeff terms from geometric mixing rule
Per MPI rank memory allocation (min/avg/max) = 9.773 | 9.773 | 9.773 Mbytes
   Step          Temp          E_pair         E_mol          TotEng         Press     
       233   2717.433       1.3926535      2.1389946      4.2341597     -462.58057    
       234   3312.449       1.3663903      2.0096511      4.2323767     -429.25898    
Loop time of 0.00260995 on 1 procs for 1 steps with 3 atoms

run 1 pre yes post no
PPPM initialization ...
  using 12-bit tables for long-range coulomb (src/kspace.cpp:342)
  G vector (1/distance) = 0.28934131
  grid = 18 18 18
  stencil order = 5
  estimated absolute RMS force accuracy = 7.7110449e-05
  estimated relative force accuracy = 5.3550243e-06
  using double precision KISS FFT
  3d grid and FFT values/proc = 15625 5832
Generated 0 of 21 mixed pair_coeff terms from geometric mixing rule
Per MPI rank memory allocation (min/avg/max) = 9.773 | 9.773 | 9.773 Mbytes
   Step          Temp          E_pair         E_mol          TotEng         Press     
       234   3312.449       1.3663903      2.0096511      4.2323767     -429.25898    
       235   3969.0378      1.3470205      1.8503268      4.2234241     -389.16816    
Loop time of 0.00283993 on 1 procs for 1 steps with 3 atoms

run 1 pre yes post no
PPPM initialization ...
  using 12-bit tables for long-range coulomb (src/kspace.cpp:342)
  G vector (1/distance) = 0.28934131
  grid = 18 18 18
  stencil order = 5
  estimated absolute RMS force accuracy = 7.7110449e-05
  estimated relative force accuracy = 5.3550243e-06
  using double precision KISS FFT
  3d grid and FFT values/proc = 15625 5832
Generated 0 of 21 mixed pair_coeff terms from geometric mixing rule
Per MPI rank memory allocation (min/avg/max) = 9.773 | 9.773 | 9.773 Mbytes
   Step          Temp          E_pair         E_mol          TotEng         Press     
       235   3969.0378      1.3470205      1.8503268      4.2234241     -389.16816    
       236   4662.986       1.3349781      1.6683482      4.2088028     -343.64302    
Loop time of 0.0027625 on 1 procs for 1 steps with 3 atoms

run 1 pre yes post no
PPPM initialization ...
  using 12-bit tables for long-range coulomb (src/kspace.cpp:342)
  G vector (1/distance) = 0.28934131
  grid = 18 18 18
  stencil order = 5
  estimated absolute RMS force accuracy = 7.7110449e-05
  estimated relative force accuracy = 5.3550243e-06
  using double precision KISS FFT
  3d grid and FFT values/proc = 15625 5832
Generated 0 of 21 mixed pair_coeff terms from geometric mixing rule
Per MPI rank memory allocation (min/avg/max) = 9.773 | 9.773 | 9.773 Mbytes
   Step          Temp          E_pair         E_mol          TotEng         Press     
       236   4662.986       1.3349781      1.6683482      4.2088028     -343.64302    
       237   5372.7948      1.3307543      1.4710937      4.1908244     -293.94597    
Loop time of 0.00256701 on 1 procs for 1 steps with 3 atoms

run 1 pre yes post no
PPPM initialization ...
  using 12-bit tables for long-range coulomb (src/kspace.cpp:342)
  G vector (1/distance) = 0.28934131
  grid = 18 18 18
  stencil order = 5
  estimated absolute RMS force accuracy = 7.7110449e-05
  estimated relative force accuracy = 5.3550243e-06
  using double precision KISS FFT
  3d grid and FFT values/proc = 15625 5832
Generated 0 of 21 mixed pair_coeff terms from geometric mixing rule
Per MPI rank memory allocation (min/avg/max) = 9.773 | 9.773 | 9.773 Mbytes
   Step          Temp          E_pair         E_mol          TotEng         Press     
       237   5372.7948      1.3307543      1.4710937      4.1908244     -293.94597    
       238   6078.7868      1.3348296      1.2658654      4.1721847     -241.27266    
Loop time of 0.00276003 on 1 procs for 1 steps with 3 atoms

run 1 pre yes post no
PPPM initialization ...
  using 12-bit tables for long-range coulomb (src/kspace.cpp:342)
  G vector (1/distance) = 0.28934131
  grid = 18 18 18
  stencil order = 5
  estimated absolute RMS force accuracy = 7.7110449e-05
  estimated relative force accuracy = 5.3550243e-06
  using double precision KISS FFT
  3d grid and FFT values/proc = 15625 5832
Generated 0 of 21 mixed pair_coeff terms from geometric mixing rule
Per MPI rank memory allocation (min/avg/max) = 9.773 | 9.773 | 9.773 Mbytes
   Step          Temp          E_pair         E_mol          TotEng         Press     
       238   6078.7868      1.3348296      1.2658654      4.1721847     -241.27266    
       239   6761.5154      1.3475858      1.059825       4.1553997     -186.78469    
Loop time of 0.00261756 on 1 procs for 1 steps with 3 atoms

run 1 pre yes post no
PPPM initialization ...
  using 12-bit tables for long-range coulomb (src/kspace.cpp:342)
  G vector (1/distance) = 0.28934131
  grid = 18 18 18
  stencil order = 5
  estimated absolute RMS force accuracy = 7.7110449e-05
  estimated relative force accuracy = 5.3550243e-06
  using double precision KISS FFT
  3d grid and FFT values/proc = 15625 5832
Generated 0 of 21 mixed pair_coeff terms from geometric mixing rule
Per MPI rank memory allocation (min/avg/max) = 9.773 | 9.773 | 9.773 Mbytes
   Step          Temp          E_pair         E_mol          TotEng         Press     
       239   6761.5154      1.3475858      1.059825       4.1553997     -186.78469    
       240   7400.1892      1.3691899      0.85991658     4.1422055     -131.65401    
Loop time of 0.00263507 on 1 procs for 1 steps with 3 atoms

run 1 pre yes post no
PPPM initialization ...
  using 12-bit tables for long-range coulomb (src/kspace.cpp:342)
  G vector (1/distance) = 0.28934131
  grid = 18 18 18
  stencil order = 5
  estimated absolute RMS force accuracy = 7.7110449e-05
  estimated relative force accuracy = 5.3550243e-06
  using double precision KISS FFT
  3d grid and FFT values/proc = 15625 5832
Generated 0 of 21 mixed pair_coeff terms from geometric mixing rule
Per MPI rank memory allocation (min/avg/max) = 9.773 | 9.773 | 9.773 Mbytes
   Step          Temp          E_pair         E_mol          TotEng         Press     
       240   7400.1892      1.3691899      0.85991658     4.1422055     -131.65401    
       241   7972.3606      1.3995067      0.67268231     4.133206      -77.086518    
Loop time of 0.00268034 on 1 procs for 1 steps with 3 atoms

run 1 pre yes post no
PPPM initialization ...
  using 12-bit tables for long-range coulomb (src/kspace.cpp:342)
  G vector (1/distance) = 0.28934131
  grid = 18 18 18
  stencil order = 5
  estimated absolute RMS force accuracy = 7.7110449e-05
  estimated relative force accuracy = 5.3550243e-06
  using double precision KISS FFT
  3d grid and FFT values/proc = 15625 5832
Generated 0 of 21 mixed pair_coeff terms from geometric mixing rule
Per MPI rank memory allocation (min/avg/max) = 9.773 | 9.773 | 9.773 Mbytes
   Step          Temp          E_pair         E_mol          TotEng         Press     
       241   7972.3606      1.3995067      0.67268231     4.133206      -77.086518    
       242   8455.828       1.4380145      0.50391462     4.1279323     -24.296406    
Loop time of 0.00313859 on 1 procs for 1 steps with 3 atoms

run 1 pre yes post no
PPPM initialization ...
  using 12-bit tables for long-range coulomb (src/kspace.cpp:342)
  G vector (1/distance) = 0.28934131
  grid = 18 18 18
  stencil order = 5
  estimated absolute RMS force accuracy = 7.7110449e-05
  estimated relative force accuracy = 5.3550243e-06
  using double precision KISS FFT
  3d grid and FFT values/proc = 15625 5832
Generated 0 of 21 mixed pair_coeff terms from geometric mixing rule
Per MPI rank memory allocation (min/avg/max) = 9.773 | 9.773 | 9.773 Mbytes
   Step          Temp          E_pair         E_mol          TotEng         Press     
       242   8455.828       1.4380145      0.50391462     4.1279323     -24.296406    
       243   8832.3003      1.4838127      0.3581908      4.1253324      25.5717      
Loop time of 0.00334182 on 1 procs for 1 steps with 3 atoms

run 1 pre yes post no
PPPM initialization ...
  using 12-bit tables for long-range coulomb (src/kspace.cpp:342)
  G vector (1/distance) = 0.28934131
  grid = 18 18 18
  stencil order = 5
  estimated absolute RMS force accuracy = 7.7110449e-05
  estimated relative force accuracy = 5.3550243e-06
  using double precision KISS FFT
  3d grid and FFT values/proc = 15625 5832
Generated 0 of 21 mixed pair_coeff terms from geometric mixing rule
Per MPI rank memory allocation (min/avg/max) = 9.773 | 9.773 | 9.773 Mbytes
   Step          Temp          E_pair         E_mol          TotEng         Press     
       243   8832.3003      1.4838127      0.3581908      4.1253324      25.5717      
       244   9091.0277      1.5356858      0.23842888     4.1243297      71.537681    
Loop time of 0.00285905 on 1 procs for 1 steps with 3 atoms

run 1 pre yes post no
PPPM initialization ...
  using 12-bit tables for long-range coulomb (src/kspace.cpp:342)
  G vector (1/distance) = 0.28934131
  grid = 18 18 18
  stencil order = 5
  estimated absolute RMS force accuracy = 7.7110449e-05
  estimated relative force accuracy = 5.3550243e-06
  using double precision KISS FFT
  3d grid and FFT values/proc = 15625 5832
Generated 0 of 21 mixed pair_coeff terms from geometric mixing rule
Per MPI rank memory allocation (min/avg/max) = 9.773 | 9.773 | 9.773 Mbytes
   Step          Temp          E_pair         E_mol          TotEng         Press     
       244   9091.0277      1.5356858      0.23842888     4.1243297      71.537681    
       245   9230.689       1.5922133      0.14561577     4.1241495      112.85602    
Loop time of 0.00340777 on 1 procs for 1 steps with 3 atoms

run 1 pre yes post no
PPPM initialization ...
  using 12-bit tables for long-range coulomb (src/kspace.cpp:342)
  G vector (1/distance) = 0.28934131
  grid = 18 18 18
  stencil order = 5
  estimated absolute RMS force accuracy = 7.7110449e-05
  estimated relative force accuracy = 5.3550243e-06
  using double precision KISS FFT
  3d grid and FFT values/proc = 15625 5832
Generated 0 of 21 mixed pair_coeff terms from geometric mixing rule
Per MPI rank memory allocation (min/avg/max) = 9.773 | 9.773 | 9.773 Mbytes
   Step          Temp          E_pair         E_mol          TotEng         Press     
       245   9230.689       1.5922133      0.14561577     4.1241495      112.85602    
       246   9259.1398      1.6518916      0.078785763    4.1243528      149.04155    
Loop time of 0.00290444 on 1 procs for 1 steps with 3 atoms

run 1 pre yes post no
PPPM initialization ...
  using 12-bit tables for long-range coulomb (src/kspace.cpp:342)
  G vector (1/distance) = 0.28934131
  grid = 18 18 18
  stencil order = 5
  estimated absolute RMS force accuracy = 7.7110449e-05
  estimated relative force accuracy = 5.3550243e-06
  using double precision KISS FFT
  3d grid and FFT values/proc = 15625 5832
Generated 0 of 21 mixed pair_coeff terms from geometric mixing rule
Per MPI rank memory allocation (min/avg/max) = 9.773 | 9.773 | 9.773 Mbytes
   Step          Temp          E_pair         E_mol          TotEng         Press     
       246   9259.1398      1.6518916      0.078785763    4.1243528      149.04155    
       247   9191.6956      1.7132428      0.035240922    4.1247235      179.85664    
Loop time of 0.0029789 on 1 procs for 1 steps with 3 atoms

run 1 pre yes post no
PPPM initialization ...
  using 12-bit tables for long-range coulomb (src/kspace.cpp:342)
  G vector (1/distance) = 0.28934131
  grid = 18 18 18
  stencil order = 5
  estimated absolute RMS force accuracy = 7.7110449e-05
  estimated relative force accuracy = 5.3550243e-06
  using double precision KISS FFT
  3d grid and FFT values/proc = 15625 5832
Generated 0 of 21 mixed pair_coeff terms from geometric mixing rule
Per MPI rank memory allocation (min/avg/max) = 9.773 | 9.773 | 9.773 Mbytes
   Step          Temp          E_pair         E_mol          TotEng         Press     
       247   9191.6956      1.7132428      0.035240922    4.1247235      179.85664    
       248   9048.7703      1.7749106      0.010956848    4.1251582      205.27413    
Loop time of 0.00407188 on 1 procs for 1 steps with 3 atoms

run 1 pre yes post no
PPPM initialization ...
  using 12-bit tables for long-range coulomb (src/kspace.cpp:342)
  G vector (1/distance) = 0.28934131
  grid = 18 18 18
  stencil order = 5
  estimated absolute RMS force accuracy = 7.7110449e-05
  estimated relative force accuracy = 5.3550243e-06
  using double precision KISS FFT
  3d grid and FFT values/proc = 15625 5832
Generated 0 of 21 mixed pair_coeff terms from geometric mixing rule
Per MPI rank memory allocation (min/avg/max) = 9.773 | 9.773 | 9.773 Mbytes
   Step          Temp          E_pair         E_mol          TotEng         Press     
       248   9048.7703      1.7749106      0.010956848    4.1251582      205.27413    
       249   8853.3436      1.8357198      0.0011057669   4.1255945      225.42671    
Loop time of 0.00311872 on 1 procs for 1 steps with 3 atoms

run 1 pre yes post no
PPPM initialization ...
  using 12-bit tables for long-range coulomb (src/kspace.cpp:342)
  G vector (1/distance) = 0.28934131
  grid = 18 18 18
  stencil order = 5
  estimated absolute RMS force accuracy = 7.7110449e-05
  estimated relative force accuracy = 5.3550243e-06
  using double precision KISS FFT
  3d grid and FFT values/proc = 15625 5832
Generated 0 of 21 mixed pair_coeff terms from geometric mixing rule
Per MPI rank memory allocation (min/avg/max) = 9.773 | 9.773 | 9.773 Mbytes
   Step          Temp          E_pair         E_mol          TotEng         Press     
       249   8853.3436      1.8357198      0.0011057669   4.1255945      225.42671    
       250   8628.4786      1.8947197      0.00063091468  4.1259874      240.54999    
Loop time of 0.00327352 on 1 procs for 1 steps with 3 atoms

run 1 pre yes post no
PPPM initialization ...
  using 12-bit tables for long-range coulomb (src/kspace.cpp:342)
  G vector (1/distance) = 0.28934131
  grid = 18 18 18
  stencil order = 5
  estimated absolute RMS force accuracy = 7.7110449e-05
  estimated relative force accuracy = 5.3550243e-06
  using double precision KISS FFT
  3d grid and FFT values/proc = 15625 5832
Generated 0 of 21 mixed pair_coeff terms from geometric mixing rule
Per MPI rank memory allocation (min/avg/max) = 9.773 | 9.773 | 9.773 Mbytes
   Step          Temp          E_pair         E_mol          TotEng         Press     
       250   8628.4786      1.8947197      0.00063091468  4.1259874      240.54999    
       251   8395.0422      1.9512021      0.0048094036   4.1263002      250.92522    
Loop time of 0.00310517 on 1 procs for 1 steps with 3 atoms

run 1 pre yes post no
PPPM initialization ...
  using 12-bit tables for long-range coulomb (src/kspace.cpp:342)
  G vector (1/distance) = 0.28934131
  grid = 18 18 18
  stencil order = 5
  estimated absolute RMS force accuracy = 7.7110449e-05
  estimated relative force accuracy = 5.3550243e-06
  using double precision KISS FFT
  3d grid and FFT values/proc = 15625 5832
Generated 0 of 21 mixed pair_coeff terms from geometric mixing rule
Per MPI rank memory allocation (min/avg/max) = 9.773 | 9.773 | 9.773 Mbytes
   Step          Temp          E_pair         E_mol          TotEng         Press     
       251   8395.0422      1.9512021      0.0048094036   4.1263002      250.92522    
       252   8169.7937      2.004707       0.009745002    4.1265095      256.82788    
Loop time of 0.00280417 on 1 procs for 1 steps with 3 atoms

run 1 pre yes post no
PPPM initialization ...
  using 12-bit tables for long-range coulomb (src/kspace.cpp:342)
  G vector (1/distance) = 0.28934131
  grid = 18 18 18
  stencil order = 5
  estimated absolute RMS force accuracy = 7.7110449e-05
  estimated relative force accuracy = 5.3550243e-06
  using double precision KISS FFT
  3d grid and FFT values/proc = 15625 5832
Generated 0 of 21 mixed pair_coeff terms from geometric mixing rule
Per MPI rank memory allocation (min/avg/max) = 9.773 | 9.773 | 9.773 Mbytes
   Step          Temp          E_pair         E_mol          TotEng         Press     
       252   8169.7937      2.004707       0.009745002    4.1265095      256.82788    
       253   7964.0001      2.0550052      0.012740551    4.1266014      258.48747    
Loop time of 0.00346025 on 1 procs for 1 steps with 3 atoms

run 1 pre yes post no
PPPM initialization ...
  using 12-bit tables for long-range coulomb (src/kspace.cpp:342)
  G vector (1/distance) = 0.28934131
  grid = 18 18 18
  stencil order = 5
  estimated absolute RMS force accuracy = 7.7110449e-05
  estimated relative force accuracy = 5.3550243e-06
  using double precision KISS FFT
  3d grid and FFT values/proc = 15625 5832
Generated 0 of 21 mixed pair_coeff terms from geometric mixing rule
Per MPI rank memory allocation (min/avg/max) = 9.773 | 9.773 | 9.773 Mbytes
   Step          Temp          E_pair         E_mol          TotEng         Press     
       253   7964.0001      2.0550052      0.012740551    4.1266014      258.48747    
       254   7782.6951      2.102077       0.012513526    4.1265751      256.06336    
Loop time of 0.0028301 on 1 procs for 1 steps with 3 atoms

run 1 pre yes post no
PPPM initialization ...
  using 12-bit tables for long-range coulomb (src/kspace.cpp:342)
  G vector (1/distance) = 0.28934131
  grid = 18 18 18
  stencil order = 5
  estimated absolute RMS force accuracy = 7.7110449e-05
  estimated relative force accuracy = 5.3550243e-06
  using double precision KISS FFT
  3d grid and FFT values/proc = 15625 5832
Generated 0 of 21 mixed pair_coeff terms from geometric mixing rule
Per MPI rank memory allocation (min/avg/max) = 9.773 | 9.773 | 9.773 Mbytes
   Step          Temp          E_pair         E_mol          TotEng         Press     
       254   7782.6951      2.102077       0.012513526    4.1265751      256.06336    
       255   7624.6381      2.146083       0.0092367992   4.1264434      249.63913    
Loop time of 0.00262593 on 1 procs for 1 steps with 3 atoms

run 1 pre yes post no
PPPM initialization ...
  using 12-bit tables for long-range coulomb (src/kspace.cpp:342)
  G vector (1/distance) = 0.28934131
  grid = 18 18 18
  stencil order = 5
  estimated absolute RMS force accuracy = 7.7110449e-05
  estimated relative force accuracy = 5.3550243e-06
  using double precision KISS FFT
  3d grid and FFT values/proc = 15625 5832
Generated 0 of 21 mixed pair_coeff terms from geometric mixing rule
Per MPI rank memory allocation (min/avg/max) = 9.773 | 9.773 | 9.773 Mbytes
   Step          Temp          E_pair         E_mol          TotEng         Press     
       255   7624.6381      2.146083       0.0092367992   4.1264434      249.63913    
       256   7482.9496      2.1873252      0.0044075675   4.126227       239.23472    
Loop time of 0.00261907 on 1 procs for 1 steps with 3 atoms

run 1 pre yes post no
PPPM initialization ...
  using 12-bit tables for long-range coulomb (src/kspace.cpp:342)
  G vector (1/distance) = 0.28934131
  grid = 18 18 18
  stencil order = 5
  estimated absolute RMS force accuracy = 7.7110449e-05
  estimated relative force accuracy = 5.3550243e-06
  using double precision KISS FFT
  3d grid and FFT values/proc = 15625 5832
Generated 0 of 21 mixed pair_coeff terms from geometric mixing rule
Per MPI rank memory allocation (min/avg/max) = 9.773 | 9.773 | 9.773 Mbytes
   Step          Temp          E_pair         E_mol          TotEng         Press     
       256   7482.9496      2.1873252      0.0044075675   4.126227       239.23472    
       257   7346.3277      2.2262145      0.00056736572  4.1259566      224.835      
Loop time of 0.00266476 on 1 procs for 1 steps with 3 atoms

run 1 pre yes post no
PPPM initialization ...
  using 12-bit tables for long-range coulomb (src/kspace.cpp:342)
  G vector (1/distance) = 0.28934131
  grid = 18 18 18
  stencil order = 5
  estimated absolute RMS force accuracy = 7.7110449e-05
  estimated relative force accuracy = 5.3550243e-06
  using double precision KISS FFT
  3d grid and FFT values/proc = 15625 5832
Generated 0 of 21 mixed pair_coeff terms from geometric mixing rule
Per MPI rank memory allocation (min/avg/max) = 9.773 | 9.773 | 9.773 Mbytes
   Step          Temp          E_pair         E_mol          TotEng         Press     
       257   7346.3277      2.2262145      0.00056736572  4.1259566      224.835      
       258   7200.6899      2.2632291      0.00091204877  4.1256656      206.42946    
Loop time of 0.00268287 on 1 procs for 1 steps with 3 atoms

run 1 pre yes post no
PPPM initialization ...
  using 12-bit tables for long-range coulomb (src/kspace.cpp:342)
  G vector (1/distance) = 0.28934131
  grid = 18 18 18
  stencil order = 5
  estimated absolute RMS force accuracy = 7.7110449e-05
  estimated relative force accuracy = 5.3550243e-06
  using double precision KISS FFT
  3d grid and FFT values/proc = 15625 5832
Generated 0 of 21 mixed pair_coeff terms from geometric mixing rule
Per MPI rank memory allocation (min/avg/max) = 9.773 | 9.773 | 9.773 Mbytes
   Step          Temp          E_pair         E_mol          TotEng         Press     
       258   7200.6899      2.2632291      0.00091204877  4.1256656      206.42946    
       259   7031.0464      2.2988792      0.0088403901   4.1253878      184.05809    
Loop time of 0.00280747 on 1 procs for 1 steps with 3 atoms

run 1 pre yes post no
PPPM initialization ...
  using 12-bit tables for long-range coulomb (src/kspace.cpp:342)
  G vector (1/distance) = 0.28934131
  grid = 18 18 18
  stencil order = 5
  estimated absolute RMS force accuracy = 7.7110449e-05
  estimated relative force accuracy = 5.3550243e-06
  using double precision KISS FFT
  3d grid and FFT values/proc = 15625 5832
Generated 0 of 21 mixed pair_coeff terms from geometric mixing rule
Per MPI rank memory allocation (min/avg/max) = 9.773 | 9.773 | 9.773 Mbytes
   Step          Temp          E_pair         E_mol          TotEng         Press     
       259   7031.0464      2.2988792      0.0088403901   4.1253878      184.05809    
       260   6823.4026      2.3336742      0.02749289     4.1251551      157.85739    
Loop time of 0.00359323 on 1 procs for 1 steps with 3 atoms

run 1 pre yes post no
PPPM initialization ...
  using 12-bit tables for long-range coulomb (src/kspace.cpp:342)
  G vector (1/distance) = 0.28934131
  grid = 18 18 18
  stencil order = 5
  estimated absolute RMS force accuracy = 7.7110449e-05
  estimated relative force accuracy = 5.3550243e-06
  using double precision KISS FFT
  3d grid and FFT values/proc = 15625 5832
Generated 0 of 21 mixed pair_coeff terms from geometric mixing rule
Per MPI rank memory allocation (min/avg/max) = 9.773 | 9.773 | 9.773 Mbytes
   Step          Temp          E_pair         E_mol          TotEng         Press     
       260   6823.4026      2.3336742      0.02749289     4.1251551      157.85739    
       261   6566.4989      2.3680897      0.059329129    4.124992       128.10051    
Loop time of 0.00349979 on 1 procs for 1 steps with 3 atoms

run 1 pre yes post no
PPPM initialization ...
  using 12-bit tables for long-range coulomb (src/kspace.cpp:342)
  G vector (1/distance) = 0.28934131
  grid = 18 18 18
  stencil order = 5
  estimated absolute RMS force accuracy = 7.7110449e-05
  estimated relative force accuracy = 5.3550243e-06
  using double precision KISS FFT
  3d grid and FFT values/proc = 15625 5832
Generated 0 of 21 mixed pair_coeff terms from geometric mixing rule
Per MPI rank memory allocation (min/avg/max) = 9.773 | 9.773 | 9.773 Mbytes
   Step          Temp          E_pair         E_mol          TotEng         Press     
       261   6566.4989      2.3680897      0.059329129    4.124992       128.10051    
       262   6253.2275      2.4025467      0.10578404     4.1249169      95.227357    
Loop time of 0.00348557 on 1 procs for 1 steps with 3 atoms

run 1 pre yes post no
PPPM initialization ...
  using 12-bit tables for long-range coulomb (src/kspace.cpp:342)
  G vector (1/distance) = 0.28934131
  grid = 18 18 18
  stencil order = 5
  estimated absolute RMS force accuracy = 7.7110449e-05
  estimated relative force accuracy = 5.3550243e-06
  using double precision KISS FFT
  3d grid and FFT values/proc = 15625 5832
Generated 0 of 21 mixed pair_coeff terms from geometric mixing rule
Per MPI rank memory allocation (min/avg/max) = 9.773 | 9.773 | 9.773 Mbytes
   Step          Temp          E_pair         E_mol          TotEng         Press     
       262   6253.2275      2.4025467      0.10578404     4.1249169      95.227357    
       263   5881.609       2.4373897      0.1670326      4.1249375      59.860373    
Loop time of 0.00371079 on 1 procs for 1 steps with 3 atoms

run 1 pre yes post no
PPPM initialization ...
  using 12-bit tables for long-range coulomb (src/kspace.cpp:342)
  G vector (1/distance) = 0.28934131
  grid = 18 18 18
  stencil order = 5
  estimated absolute RMS force accuracy = 7.7110449e-05
  estimated relative force accuracy = 5.3550243e-06
  using double precision KISS FFT
  3d grid and FFT values/proc = 15625 5832
Generated 0 of 21 mixed pair_coeff terms from geometric mixing rule
Per MPI rank memory allocation (min/avg/max) = 9.773 | 9.773 | 9.773 Mbytes
   Step          Temp          E_pair         E_mol          TotEng         Press     
       263   5881.609       2.4373897      0.1670326      4.1249375      59.860373    
       264   5455.2585      2.472878       0.24188036     4.1250534      22.804755    
Loop time of 0.00391996 on 1 procs for 1 steps with 3 atoms

run 1 pre yes post no
PPPM initialization ...
  using 12-bit tables for long-range coulomb (src/kspace.cpp:342)
  G vector (1/distance) = 0.28934131
  grid = 18 18 18
  stencil order = 5
  estimated absolute RMS force accuracy = 7.7110449e-05
  estimated relative force accuracy = 5.3550243e-06
  using double precision KISS FFT
  3d grid and FFT values/proc = 15625 5832
Generated 0 of 21 mixed pair_coeff terms from geometric mixing rule
Per MPI rank memory allocation (min/avg/max) = 9.773 | 9.773 | 9.773 Mbytes
   Step          Temp          E_pair         E_mol          TotEng         Press     
       264   5455.2585      2.472878       0.24188036     4.1250534      22.804755    
       265   4983.3213      2.509182       0.32778493     4.1252567     -14.967988    
Loop time of 0.002973 on 1 procs for 1 steps with 3 atoms

run 1 pre yes post no
PPPM initialization ...
  using 12-bit tables for long-range coulomb (src/kspace.cpp:342)
  G vector (1/distance) = 0.28934131
  grid = 18 18 18
  stencil order = 5
  estimated absolute RMS force accuracy = 7.7110449e-05
  estimated relative force accuracy = 5.3550243e-06
  using double precision KISS FFT
  3d grid and FFT values/proc = 15625 5832
Generated 0 of 21 mixed pair_coeff terms from geometric mixing rule
Per MPI rank memory allocation (min/avg/max) = 9.773 | 9.773 | 9.773 Mbytes
   Step          Temp          E_pair         E_mol          TotEng         Press     
       265   4983.3213      2.509182       0.32778493     4.1252567     -14.967988    
       266   4479.9021      2.5463809      0.42100249     4.125529      -52.352258    
Loop time of 0.00111701 on 1 procs for 1 steps with 3 atoms

run 1 pre yes post no
PPPM initialization ...
  using 12-bit tables for long-range coulomb (src/kspace.cpp:342)
  G vector (1/distance) = 0.28934131
  grid = 18 18 18
  stencil order = 5
  estimated absolute RMS force accuracy = 7.7110449e-05
  estimated relative force accuracy = 5.3550243e-06
  using double precision KISS FFT
  3d grid and FFT values/proc = 15625 5832
Generated 0 of 21 mixed pair_coeff terms from geometric mixing rule
Per MPI rank memory allocation (min/avg/max) = 9.773 | 9.773 | 9.773 Mbytes
   Step          Temp          E_pair         E_mol          TotEng         Press     
       266   4479.9021      2.5463809      0.42100249     4.125529      -52.352258    
       267   3963.0519      2.5844755      0.51684337     4.1258482     -88.153538    
Loop time of 0.00108674 on 1 procs for 1 steps with 3 atoms

run 1 pre yes post no
PPPM initialization ...
  using 12-bit tables for long-range coulomb (src/kspace.cpp:342)
  G vector (1/distance) = 0.28934131
  grid = 18 18 18
  stencil order = 5
  estimated absolute RMS force accuracy = 7.7110449e-05
  estimated relative force accuracy = 5.3550243e-06
  using double precision KISS FFT
  3d grid and FFT values/proc = 15625 5832
Generated 0 of 21 mixed pair_coeff terms from geometric mixing rule
Per MPI rank memory allocation (min/avg/max) = 9.773 | 9.773 | 9.773 Mbytes
   Step          Temp          E_pair         E_mol          TotEng         Press     
       267   3963.0519      2.5844755      0.51684337     4.1258482     -88.153538    
       268   3453.4092      2.6233993      0.6100132      4.1261888     -121.14407    
Loop time of 0.0010732 on 1 procs for 1 steps with 3 atoms

run 1 pre yes post no
PPPM initialization ...
  using 12-bit tables for long-range coulomb (src/kspace.cpp:342)
  G vector (1/distance) = 0.28934131
  grid = 18 18 18
  stencil order = 5
  estimated absolute RMS force accuracy = 7.7110449e-05
  estimated relative force accuracy = 5.3550243e-06
  using double precision KISS FFT
  3d grid and FFT values/proc = 15625 5832
Generated 0 of 21 mixed pair_coeff terms from geometric mixing rule
Per MPI rank memory allocation (min/avg/max) = 9.773 | 9.773 | 9.773 Mbytes
   Step          Temp          E_pair         E_mol          TotEng         Press     
       268   3453.4092      2.6233993      0.6100132      4.1261888     -121.14407    
       269   2972.6147      2.663031       0.69501013     4.1265223     -150.1247     
Loop time of 0.0010707 on 1 procs for 1 steps with 3 atoms

run 1 pre yes post no
PPPM initialization ...
  using 12-bit tables for long-range coulomb (src/kspace.cpp:342)
  G vector (1/distance) = 0.28934131
  grid = 18 18 18
  stencil order = 5
  estimated absolute RMS force accuracy = 7.7110449e-05
  estimated relative force accuracy = 5.3550243e-06
  using double precision KISS FFT
  3d grid and FFT values/proc = 15625 5832
Generated 0 of 21 mixed pair_coeff terms from geometric mixing rule
Per MPI rank memory allocation (min/avg/max) = 9.773 | 9.773 | 9.773 Mbytes
   Step          Temp          E_pair         E_mol          TotEng         Press     
       269   2972.6147      2.663031       0.69501013     4.1265223     -150.1247     
       270   2541.63        2.7032134      0.76654551     4.1268219     -173.98841    
Loop time of 0.00107502 on 1 procs for 1 steps with 3 atoms

run 1 pre yes post no
PPPM initialization ...
  using 12-bit tables for long-range coulomb (src/kspace.cpp:342)
  G vector (1/distance) = 0.28934131
  grid = 18 18 18
  stencil order = 5
  estimated absolute RMS force accuracy = 7.7110449e-05
  estimated relative force accuracy = 5.3550243e-06
  using double precision KISS FFT
  3d grid and FFT values/proc = 15625 5832
Generated 0 of 21 mixed pair_coeff terms from geometric mixing rule
Per MPI rank memory allocation (min/avg/max) = 9.773 | 9.773 | 9.773 Mbytes
   Step          Temp          E_pair         E_mol          TotEng         Press     
       270   2541.63        2.7032134      0.76654551     4.1268219     -173.98841    
       271   2179.0976      2.7437667      0.81995455     4.1270622     -191.78126    
Loop time of 0.00109888 on 1 procs for 1 steps with 3 atoms

run 1 pre yes post no
PPPM initialization ...
  using 12-bit tables for long-range coulomb (src/kspace.cpp:342)
  G vector (1/distance) = 0.28934131
  grid = 18 18 18
  stencil order = 5
  estimated absolute RMS force accuracy = 7.7110449e-05
  estimated relative force accuracy = 5.3550243e-06
  using double precision KISS FFT
  3d grid and FFT values/proc = 15625 5832
Generated 0 of 21 mixed pair_coeff terms from geometric mixing rule
Per MPI rank memory allocation (min/avg/max) = 9.773 | 9.773 | 9.773 Mbytes
   Step          Temp          E_pair         E_mol          TotEng         Press     
       271   2179.0976      2.7437667      0.81995455     4.1270622     -191.78126    
       272   1899.8678      2.7845043      0.8515649      4.1272236     -202.75635    
Loop time of 0.00108026 on 1 procs for 1 steps with 3 atoms

run 1 pre yes post no
PPPM initialization ...
  using 12-bit tables for long-range coulomb (src/kspace.cpp:342)
  G vector (1/distance) = 0.28934131
  grid = 18 18 18
  stencil order = 5
  estimated absolute RMS force accuracy = 7.7110449e-05
  estimated relative force accuracy = 5.3550243e-06
  using double precision KISS FFT
  3d grid and FFT values/proc = 15625 5832
Generated 0 of 21 mixed pair_coeff terms from geometric mixing rule
Per MPI rank memory allocation (min/avg/max) = 9.773 | 9.773 | 9.773 Mbytes
   Step          Temp          E_pair         E_mol          TotEng         Press     
       272   1899.8678      2.7845043      0.8515649      4.1272236     -202.75635    
       273   1713.8075      2.8252444      0.8589949      4.1272933     -206.41688    
Loop time of 0.00109625 on 1 procs for 1 steps with 3 atoms

run 1 pre yes post no
PPPM initialization ...
  using 12-bit tables for long-range coulomb (src/kspace.cpp:342)
  G vector (1/distance) = 0.28934131
  grid = 18 18 18
  stencil order = 5
  estimated absolute RMS force accuracy = 7.7110449e-05
  estimated relative force accuracy = 5.3550243e-06
  using double precision KISS FFT
  3d grid and FFT values/proc = 15625 5832
Generated 0 of 21 mixed pair_coeff terms from geometric mixing rule
Per MPI rank memory allocation (min/avg/max) = 9.773 | 9.773 | 9.773 Mbytes
   Step          Temp          E_pair         E_mol          TotEng         Press     
       273   1713.8075      2.8252444      0.8589949      4.1272933     -206.41688    
       274   1624.9771      2.8658147      0.84135898     4.1272632     -202.54582    
Loop time of 0.00107224 on 1 procs for 1 steps with 3 atoms

run 1 pre yes post no
PPPM initialization ...
  using 12-bit tables for long-range coulomb (src/kspace.cpp:342)
  G vector (1/distance) = 0.28934131
  grid = 18 18 18
  stencil order = 5
  estimated absolute RMS force accuracy = 7.7110449e-05
  estimated relative force accuracy = 5.3550243e-06
  using double precision KISS FFT
  3d grid and FFT values/proc = 15625 5832
Generated 0 of 21 mixed pair_coeff terms from geometric mixing rule
Per MPI rank memory allocation (min/avg/max) = 9.773 | 9.773 | 9.773 Mbytes
   Step          Temp          E_pair         E_mol          TotEng         Press     
       274   1624.9771      2.8658147      0.84135898     4.1272632     -202.54582    
       275   1631.2374      2.906063       0.79936466     4.1271357     -191.21922    
Loop time of 0.00118671 on 1 procs for 1 steps with 3 atoms

run 1 pre yes post no
PPPM initialization ...
  using 12-bit tables for long-range coulomb (src/kspace.cpp:342)
  G vector (1/distance) = 0.28934131
  grid = 18 18 18
  stencil order = 5
  estimated absolute RMS force accuracy = 7.7110449e-05
  estimated relative force accuracy = 5.3550243e-06
  using double precision KISS FFT
  3d grid and FFT values/proc = 15625 5832
Generated 0 of 21 mixed pair_coeff terms from geometric mixing rule
Per MPI rank memory allocation (min/avg/max) = 9.773 | 9.773 | 9.773 Mbytes
   Step          Temp          E_pair         E_mol          TotEng         Press     
       275   1631.2374      2.906063       0.79936466     4.1271357     -191.21922    
       276   1724.3141      2.9458531      0.73529389     4.1269172     -172.80343    
Loop time of 0.0011163 on 1 procs for 1 steps with 3 atoms

run 1 pre yes post no
PPPM initialization ...
  using 12-bit tables for long-range coulomb (src/kspace.cpp:342)
  G vector (1/distance) = 0.28934131
  grid = 18 18 18
  stencil order = 5
  estimated absolute RMS force accuracy = 7.7110449e-05
  estimated relative force accuracy = 5.3550243e-06
  using double precision KISS FFT
  3d grid and FFT values/proc = 15625 5832
Generated 0 of 21 mixed pair_coeff terms from geometric mixing rule
Per MPI rank memory allocation (min/avg/max) = 9.773 | 9.773 | 9.773 Mbytes
   Step          Temp          E_pair         E_mol          TotEng         Press     
       276   1724.3141      2.9458531      0.73529389     4.1269172     -172.80343    
       277   1890.3118      2.9850693      0.65287003     4.1266233     -147.93521    
Loop time of 0.00110609 on 1 procs for 1 steps with 3 atoms

run 1 pre yes post no
PPPM initialization ...
  using 12-bit tables for long-range coulomb (src/kspace.cpp:342)
  G vector (1/distance) = 0.28934131
  grid = 18 18 18
  stencil order = 5
  estimated absolute RMS force accuracy = 7.7110449e-05
  estimated relative force accuracy = 5.3550243e-06
  using double precision KISS FFT
  3d grid and FFT values/proc = 15625 5832
Generated 0 of 21 mixed pair_coeff terms from geometric mixing rule
Per MPI rank memory allocation (min/avg/max) = 9.773 | 9.773 | 9.773 Mbytes
   Step          Temp          E_pair         E_mol          TotEng         Press     
       277   1890.3118      2.9850693      0.65287003     4.1266233     -147.93521    
       278   2110.641       3.0236115      0.55701992     4.1262749     -117.48699    
Loop time of 0.00109199 on 1 procs for 1 steps with 3 atoms

run 1 pre yes post no
PPPM initialization ...
  using 12-bit tables for long-range coulomb (src/kspace.cpp:342)
  G vector (1/distance) = 0.28934131
  grid = 18 18 18
  stencil order = 5
  estimated absolute RMS force accuracy = 7.7110449e-05
  estimated relative force accuracy = 5.3550243e-06
  using double precision KISS FFT
  3d grid and FFT values/proc = 15625 5832
Generated 0 of 21 mixed pair_coeff terms from geometric mixing rule
Per MPI rank memory allocation (min/avg/max) = 9.773 | 9.773 | 9.773 Mbytes
   Step          Temp          E_pair         E_mol          TotEng         Press     
       278   2110.641       3.0236115      0.55701992     4.1262749     -117.48699    
       279   2363.2869      3.0613898      0.45354832     4.1258957     -82.519157    
Loop time of 0.00113136 on 1 procs for 1 steps with 3 atoms

run 1 pre yes post no
PPPM initialization ...
  using 12-bit tables for long-range coulomb (src/kspace.cpp:342)
  G vector (1/distance) = 0.28934131
  grid = 18 18 18
  stencil order = 5
  estimated absolute RMS force accuracy = 7.7110449e-05
  estimated relative force accuracy = 5.3550243e-06
  using double precision KISS FFT
  3d grid and FFT values/proc = 15625 5832
Generated 0 of 21 mixed pair_coeff terms from geometric mixing rule
Per MPI rank memory allocation (min/avg/max) = 9.773 | 9.773 | 9.773 Mbytes
   Step          Temp          E_pair         E_mol          TotEng         Press     
       279   2363.2869      3.0613898      0.45354832     4.1258957     -82.519157    
       280   2624.3288      3.0983231      0.34874808     4.1255134     -44.222596    
Loop time of 0.00121772 on 1 procs for 1 steps with 3 atoms

run 1 pre yes post no
PPPM initialization ...
  using 12-bit tables for long-range coulomb (src/kspace.cpp:342)
  G vector (1/distance) = 0.28934131
  grid = 18 18 18
  stencil order = 5
  estimated absolute RMS force accuracy = 7.7110449e-05
  estimated relative force accuracy = 5.3550243e-06
  using double precision KISS FFT
  3d grid and FFT values/proc = 15625 5832
Generated 0 of 21 mixed pair_coeff terms from geometric mixing rule
Per MPI rank memory allocation (min/avg/max) = 9.773 | 9.773 | 9.773 Mbytes
   Step          Temp          E_pair         E_mol          TotEng         Press     
       280   2624.3288      3.0983231      0.34874808     4.1255134     -44.222596    
       281   2869.5996      3.1343314      0.24897408     4.1251552     -3.8554607    
Loop time of 0.00117794 on 1 procs for 1 steps with 3 atoms

run 1 pre yes post no
PPPM initialization ...
  using 12-bit tables for long-range coulomb (src/kspace.cpp:342)
  G vector (1/distance) = 0.28934131
  grid = 18 18 18
  stencil order = 5
  estimated absolute RMS force accuracy = 7.7110449e-05
  estimated relative force accuracy = 5.3550243e-06
  using double precision KISS FFT
  3d grid and FFT values/proc = 15625 5832
Generated 0 of 21 mixed pair_coeff terms from geometric mixing rule
Per MPI rank memory allocation (min/avg/max) = 9.773 | 9.773 | 9.773 Mbytes
   Step          Temp          E_pair         E_mol          TotEng         Press     
       281   2869.5996      3.1343314      0.24897408     4.1251552     -3.8554607    
       282   3076.3643      3.1693328      0.16021147     4.1248469      37.321855    
Loop time of 0.00106216 on 1 procs for 1 steps with 3 atoms

run 1 pre yes post no
PPPM initialization ...
  using 12-bit tables for long-range coulomb (src/kspace.cpp:342)
  G vector (1/distance) = 0.28934131
  grid = 18 18 18
  stencil order = 5
  estimated absolute RMS force accuracy = 7.7110449e-05
  estimated relative force accuracy = 5.3550243e-06
  using double precision KISS FFT
  3d grid and FFT values/proc = 15625 5832
Generated 0 of 21 mixed pair_coeff terms from geometric mixing rule
Per MPI rank memory allocation (min/avg/max) = 9.773 | 9.773 | 9.773 Mbytes
   Step          Temp          E_pair         E_mol          TotEng         Press     
       282   3076.3643      3.1693328      0.16021147     4.1248469      37.321855    
       283   3224.8998      3.2032391      0.087668981    4.1246102      78.109208    
Loop time of 0.0010513 on 1 procs for 1 steps with 3 atoms

run 1 pre yes post no
PPPM initialization ...
  using 12-bit tables for long-range coulomb (src/kspace.cpp:342)
  G vector (1/distance) = 0.28934131
  grid = 18 18 18
  stencil order = 5
  estimated absolute RMS force accuracy = 7.7110449e-05
  estimated relative force accuracy = 5.3550243e-06
  using double precision KISS FFT
  3d grid and FFT values/proc = 15625 5832
Generated 0 of 21 mixed pair_coeff terms from geometric mixing rule
Per MPI rank memory allocation (min/avg/max) = 9.773 | 9.773 | 9.773 Mbytes
   Step          Temp          E_pair         E_mol          TotEng         Press     
       283   3224.8998      3.2032391      0.087668981    4.1246102      78.109208    
       284   3299.8596      3.2359549      0.035426455    4.124462       117.4228     
Loop time of 0.00104833 on 1 procs for 1 steps with 3 atoms

run 1 pre yes post no
PPPM initialization ...
  using 12-bit tables for long-range coulomb (src/kspace.cpp:342)
  G vector (1/distance) = 0.28934131
  grid = 18 18 18
  stencil order = 5
  estimated absolute RMS force accuracy = 7.7110449e-05
  estimated relative force accuracy = 5.3550243e-06
  using double precision KISS FFT
  3d grid and FFT values/proc = 15625 5832
Generated 0 of 21 mixed pair_coeff terms from geometric mixing rule
Per MPI rank memory allocation (min/avg/max) = 9.773 | 9.773 | 9.773 Mbytes
   Step          Temp          E_pair         E_mol          TotEng         Press     
       284   3299.8596      3.2359549      0.035426455    4.124462       117.4228     
       285   3291.3302      3.2673758      0.0061613722   4.1244129      154.34133    
Loop time of 0.0010506 on 1 procs for 1 steps with 3 atoms

run 1 pre yes post no
PPPM initialization ...
  using 12-bit tables for long-range coulomb (src/kspace.cpp:342)
  G vector (1/distance) = 0.28934131
  grid = 18 18 18
  stencil order = 5
  estimated absolute RMS force accuracy = 7.7110449e-05
  estimated relative force accuracy = 5.3550243e-06
  using double precision KISS FFT
  3d grid and FFT values/proc = 15625 5832
Generated 0 of 21 mixed pair_coeff terms from geometric mixing rule
Per MPI rank memory allocation (min/avg/max) = 9.773 | 9.773 | 9.773 Mbytes
   Step          Temp          E_pair         E_mol          TotEng         Press     
       285   3291.3302      3.2673758      0.0061613722   4.1244129      154.34133    
       286   3195.502       3.2973924      0.00097387734  4.1244684      188.13961    
Loop time of 0.00104988 on 1 procs for 1 steps with 3 atoms

run 1 pre yes post no
PPPM initialization ...
  using 12-bit tables for long-range coulomb (src/kspace.cpp:342)
  G vector (1/distance) = 0.28934131
  grid = 18 18 18
  stencil order = 5
  estimated absolute RMS force accuracy = 7.7110449e-05
  estimated relative force accuracy = 5.3550243e-06
  using double precision KISS FFT
  3d grid and FFT values/proc = 15625 5832
Generated 0 of 21 mixed pair_coeff terms from geometric mixing rule
Per MPI rank memory allocation (min/avg/max) = 9.773 | 9.773 | 9.773 Mbytes
   Step          Temp          E_pair         E_mol          TotEng         Press     
       286   3195.502       3.2973924      0.00097387734  4.1244684      188.13961    
       287   3014.9096      3.325884       0.019322413    4.1246217      218.30737    
Loop time of 0.00133537 on 1 procs for 1 steps with 3 atoms

run 1 pre yes post no
PPPM initialization ...
  using 12-bit tables for long-range coulomb (src/kspace.cpp:342)
  G vector (1/distance) = 0.28934131
  grid = 18 18 18
  stencil order = 5
  estimated absolute RMS force accuracy = 7.7110449e-05
  estimated relative force accuracy = 5.3550243e-06
  using double precision KISS FFT
  3d grid and FFT values/proc = 15625 5832
Generated 0 of 21 mixed pair_coeff terms from geometric mixing rule
Per MPI rank memory allocation (min/avg/max) = 9.773 | 9.773 | 9.773 Mbytes
   Step          Temp          E_pair         E_mol          TotEng         Press     
       287   3014.9096      3.325884       0.019322413    4.1246217      218.30737    
       288   2758.2258      3.3527326      0.05907425     4.1248642      244.55362    
Loop time of 0.00124524 on 1 procs for 1 steps with 3 atoms

run 1 pre yes post no
PPPM initialization ...
  using 12-bit tables for long-range coulomb (src/kspace.cpp:342)
  G vector (1/distance) = 0.28934131
  grid = 18 18 18
  stencil order = 5
  estimated absolute RMS force accuracy = 7.7110449e-05
  estimated relative force accuracy = 5.3550243e-06
  using double precision KISS FFT
  3d grid and FFT values/proc = 15625 5832
Generated 0 of 21 mixed pair_coeff terms from geometric mixing rule
Per MPI rank memory allocation (min/avg/max) = 9.773 | 9.773 | 9.773 Mbytes
   Step          Temp          E_pair         E_mol          TotEng         Press     
       288   2758.2258      3.3527326      0.05907425     4.1248642      244.55362    
       289   2439.6253      3.3778204      0.11666696     4.12518        266.79553    
Loop time of 0.00110793 on 1 procs for 1 steps with 3 atoms

run 1 pre yes post no
PPPM initialization ...
  using 12-bit tables for long-range coulomb (src/kspace.cpp:342)
  G vector (1/distance) = 0.28934131
  grid = 18 18 18
  stencil order = 5
  estimated absolute RMS force accuracy = 7.7110449e-05
  estimated relative force accuracy = 5.3550243e-06
  using double precision KISS FFT
  3d grid and FFT values/proc = 15625 5832
Generated 0 of 21 mixed pair_coeff terms from geometric mixing rule
Per MPI rank memory allocation (min/avg/max) = 9.773 | 9.773 | 9.773 Mbytes
   Step          Temp          E_pair         E_mol          TotEng         Press     
       289   2439.6253      3.3778204      0.11666696     4.12518        266.79553    
       290   2077.7648      3.4010319      0.18736899     4.1255453      285.13403    
Loop time of 0.0011805 on 1 procs for 1 steps with 3 atoms

run 1 pre yes post no
PPPM initialization ...
  using 12-bit tables for long-range coulomb (src/kspace.cpp:342)
  G vector (1/distance) = 0.28934131
  grid = 18 18 18
  stencil order = 5
  estimated absolute RMS force accuracy = 7.7110449e-05
  estimated relative force accuracy = 5.3550243e-06
  using double precision KISS FFT
  3d grid and FFT values/proc = 15625 5832
Generated 0 of 21 mixed pair_coeff terms from geometric mixing rule
Per MPI rank memory allocation (min/avg/max) = 9.773 | 9.773 | 9.773 Mbytes
   Step          Temp          E_pair         E_mol          TotEng         Press     
       290   2077.7648      3.4010319      0.18736899     4.1255453      285.13403    
       291   1694.4545      3.422265       0.26562035     4.1259363      299.81851    
Loop time of 0.00127916 on 1 procs for 1 steps with 3 atoms

run 1 pre yes post no
PPPM initialization ...
  using 12-bit tables for long-range coulomb (src/kspace.cpp:342)
  G vector (1/distance) = 0.28934131
  grid = 18 18 18
  stencil order = 5
  estimated absolute RMS force accuracy = 7.7110449e-05
  estimated relative force accuracy = 5.3550243e-06
  using double precision KISS FFT
  3d grid and FFT values/proc = 15625 5832
Generated 0 of 21 mixed pair_coeff terms from geometric mixing rule
Per MPI rank memory allocation (min/avg/max) = 9.773 | 9.773 | 9.773 Mbytes
   Step          Temp          E_pair         E_mol          TotEng         Press     
       291   1694.4545      3.422265       0.26562035     4.1259363      299.81851    
       292   1313.1155      3.4414282      0.34542909     4.1263243      311.20305    
Loop time of 0.00126085 on 1 procs for 1 steps with 3 atoms

run 1 pre yes post no
PPPM initialization ...
  using 12-bit tables for long-range coulomb (src/kspace.cpp:342)
  G vector (1/distance) = 0.28934131
  grid = 18 18 18
  stencil order = 5
  estimated absolute RMS force accuracy = 7.7110449e-05
  estimated relative force accuracy = 5.3550243e-06
  using double precision KISS FFT
  3d grid and FFT values/proc = 15625 5832
Generated 0 of 21 mixed pair_coeff terms from geometric mixing rule
Per MPI rank memory allocation (min/avg/max) = 9.773 | 9.773 | 9.773 Mbytes
   Step          Temp          E_pair         E_mol          TotEng         Press     
       292   1313.1155      3.4414282      0.34542909     4.1263243      311.20305    
       293   957.13379      3.4584507      0.42079501     4.1266843      319.69857    
Loop time of 0.00131356 on 1 procs for 1 steps with 3 atoms

run 1 pre yes post no
PPPM initialization ...
  using 12-bit tables for long-range coulomb (src/kspace.cpp:342)
  G vector (1/distance) = 0.28934131
  grid = 18 18 18
  stencil order = 5
  estimated absolute RMS force accuracy = 7.7110449e-05
  estimated relative force accuracy = 5.3550243e-06
  using double precision KISS FFT
  3d grid and FFT values/proc = 15625 5832
Generated 0 of 21 mixed pair_coeff terms from geometric mixing rule
Per MPI rank memory allocation (min/avg/max) = 9.773 | 9.773 | 9.773 Mbytes
   Step          Temp          E_pair         E_mol          TotEng         Press     
       293   957.13379      3.4584507      0.42079501     4.1266843      319.69857    
       294   648.22706      3.4732807      0.48613065     4.1269912      325.72377    
Loop time of 0.00155364 on 1 procs for 1 steps with 3 atoms

run 1 pre yes post no
PPPM initialization ...
  using 12-bit tables for long-range coulomb (src/kspace.cpp:342)
  G vector (1/distance) = 0.28934131
  grid = 18 18 18
  stencil order = 5
  estimated absolute RMS force accuracy = 7.7110449e-05
  estimated relative force accuracy = 5.3550243e-06
  using double precision KISS FFT
  3d grid and FFT values/proc = 15625 5832
Generated 0 of 21 mixed pair_coeff terms from geometric mixing rule
Per MPI rank memory allocation (min/avg/max) = 9.773 | 9.773 | 9.773 Mbytes
   Step          Temp          E_pair         E_mol          TotEng         Press     
       294   648.22706      3.4732807      0.48613065     4.1269912      325.72377    
       295   404.93927      3.4858895      0.53664998     4.1272245      329.65957    
Loop time of 0.00147212 on 1 procs for 1 steps with 3 atoms

run 1 pre yes post no
PPPM initialization ...
  using 12-bit tables for long-range coulomb (src/kspace.cpp:342)
  G vector (1/distance) = 0.28934131
  grid = 18 18 18
  stencil order = 5
  estimated absolute RMS force accuracy = 7.7110449e-05
  estimated relative force accuracy = 5.3550243e-06
  using double precision KISS FFT
  3d grid and FFT values/proc = 15625 5832
Generated 0 of 21 mixed pair_coeff terms from geometric mixing rule
Per MPI rank memory allocation (min/avg/max) = 9.773 | 9.773 | 9.773 Mbytes
   Step          Temp          E_pair         E_mol          TotEng         Press     
       295   404.93927      3.4858895      0.53664998     4.1272245      329.65957    
       296   241.36678      3.4962729      0.56869771     4.1273688      331.80991    
Loop time of 0.00126801 on 1 procs for 1 steps with 3 atoms

run 1 pre yes post no
PPPM initialization ...
  using 12-bit tables for long-range coulomb (src/kspace.cpp:342)
  G vector (1/distance) = 0.28934131
  grid = 18 18 18
  stencil order = 5
  estimated absolute RMS force accuracy = 7.7110449e-05
  estimated relative force accuracy = 5.3550243e-06
  using double precision KISS FFT
  3d grid and FFT values/proc = 15625 5832
Generated 0 of 21 mixed pair_coeff terms from geometric mixing rule
Per MPI rank memory allocation (min/avg/max) = 9.773 | 9.773 | 9.773 Mbytes
   Step          Temp          E_pair         E_mol          TotEng         Press     
       296   241.36678      3.4962729      0.56869771     4.1273688      331.80991    
       297   166.20342      3.504451       0.57999672     4.1274147      332.37199    
Loop time of 0.00122605 on 1 procs for 1 steps with 3 atoms

run 1 pre yes post no
PPPM initialization ...
  using 12-bit tables for long-range coulomb (src/kspace.cpp:342)
  G vector (1/distance) = 0.28934131
  grid = 18 18 18
  stencil order = 5
  estimated absolute RMS force accuracy = 7.7110449e-05
  estimated relative force accuracy = 5.3550243e-06
  using double precision KISS FFT
  3d grid and FFT values/proc = 15625 5832
Generated 0 of 21 mixed pair_coeff terms from geometric mixing rule
Per MPI rank memory allocation (min/avg/max) = 9.773 | 9.773 | 9.773 Mbytes
   Step          Temp          E_pair         E_mol          TotEng         Press     
       297   166.20342      3.504451       0.57999672     4.1274147      332.37199    
       298   182.16799      3.5104683      0.56979707     4.1273595      331.41826    
Loop time of 0.00108394 on 1 procs for 1 steps with 3 atoms

run 1 pre yes post no
PPPM initialization ...
  using 12-bit tables for long-range coulomb (src/kspace.cpp:342)
  G vector (1/distance) = 0.28934131
  grid = 18 18 18
  stencil order = 5
  estimated absolute RMS force accuracy = 7.7110449e-05
  estimated relative force accuracy = 5.3550243e-06
  using double precision KISS FFT
  3d grid and FFT values/proc = 15625 5832
Generated 0 of 21 mixed pair_coeff terms from geometric mixing rule
Per MPI rank memory allocation (min/avg/max) = 9.773 | 9.773 | 9.773 Mbytes
   Step          Temp          E_pair         E_mol          TotEng         Press     
       298   182.16799      3.5104683      0.56979707     4.1273595      331.41826    
       299   285.85058      3.5143923      0.53891721     4.1272077      328.89115    
Loop time of 0.00120958 on 1 procs for 1 steps with 3 atoms

run 1 pre yes post no
PPPM initialization ...
  using 12-bit tables for long-range coulomb (src/kspace.cpp:342)
  G vector (1/distance) = 0.28934131
  grid = 18 18 18
  stencil order = 5
  estimated absolute RMS force accuracy = 7.7110449e-05
  estimated relative force accuracy = 5.3550243e-06
  using double precision KISS FFT
  3d grid and FFT values/proc = 15625 5832
Generated 0 of 21 mixed pair_coeff terms from geometric mixing rule
Per MPI rank memory allocation (min/avg/max) = 9.773 | 9.773 | 9.773 Mbytes
   Step          Temp          E_pair         E_mol          TotEng         Press     
       299   285.85058      3.5143923      0.53891721     4.1272077      328.89115    
       300   467.98529      3.5163128      0.48967522     4.1269717      324.61105    
Loop time of 0.00140433 on 1 procs for 1 steps with 3 atoms

run 1 pre yes post no
PPPM initialization ...
  using 12-bit tables for long-range coulomb (src/kspace.cpp:342)
  G vector (1/distance) = 0.28934131
  grid = 18 18 18
  stencil order = 5
  estimated absolute RMS force accuracy = 7.7110449e-05
  estimated relative force accuracy = 5.3550243e-06
  using double precision KISS FFT
  3d grid and FFT values/proc = 15625 5832
Generated 0 of 21 mixed pair_coeff terms from geometric mixing rule
Per MPI rank memory allocation (min/avg/max) = 9.773 | 9.773 | 9.773 Mbytes
   Step          Temp          E_pair         E_mol          TotEng         Press     
       300   467.98529      3.5163128      0.48967522     4.1269717      324.61105    
       301   714.12743      3.5163352      0.42571595     4.1266676      318.29658    
Loop time of 0.00116679 on 1 procs for 1 steps with 3 atoms

run 1 pre yes post no
PPPM initialization ...
  using 12-bit tables for long-range coulomb (src/kspace.cpp:342)
  G vector (1/distance) = 0.28934131
  grid = 18 18 18
  stencil order = 5
  estimated absolute RMS force accuracy = 7.7110449e-05
  estimated relative force accuracy = 5.3550243e-06
  using double precision KISS FFT
  3d grid and FFT values/proc = 15625 5832
Generated 0 of 21 mixed pair_coeff terms from geometric mixing rule
Per MPI rank memory allocation (min/avg/max) = 9.773 | 9.773 | 9.773 Mbytes
   Step          Temp          E_pair         E_mol          TotEng         Press     
       301   714.12743      3.5163352      0.42571595     4.1266676      318.29658    
       302   1005.6863      3.5145799      0.35174641     4.1263166      309.59586    
Loop time of 0.00116005 on 1 procs for 1 steps with 3 atoms

run 1 pre yes post no
PPPM initialization ...
  using 12-bit tables for long-range coulomb (src/kspace.cpp:342)
  G vector (1/distance) = 0.28934131
  grid = 18 18 18
  stencil order = 5
  estimated absolute RMS force accuracy = 7.7110449e-05
  estimated relative force accuracy = 5.3550243e-06
  using double precision KISS FFT
  3d grid and FFT values/proc = 15625 5832
Generated 0 of 21 mixed pair_coeff terms from geometric mixing rule
Per MPI rank memory allocation (min/avg/max) = 9.773 | 9.773 | 9.773 Mbytes
   Step          Temp          E_pair         E_mol          TotEng         Press     
       302   1005.6863      3.5145799      0.35174641     4.1263166      309.59586    
       303   1321.2412      3.5111776      0.27319839     4.1259437      298.12621    
Loop time of 0.00108931 on 1 procs for 1 steps with 3 atoms

run 1 pre yes post no
PPPM initialization ...
  using 12-bit tables for long-range coulomb (src/kspace.cpp:342)
  G vector (1/distance) = 0.28934131
  grid = 18 18 18
  stencil order = 5
  estimated absolute RMS force accuracy = 7.7110449e-05
  estimated relative force accuracy = 5.3550243e-06
  using double precision KISS FFT
  3d grid and FFT values/proc = 15625 5832
Generated 0 of 21 mixed pair_coeff terms from geometric mixing rule
Per MPI rank memory allocation (min/avg/max) = 9.773 | 9.773 | 9.773 Mbytes
   Step          Temp          E_pair         E_mol          TotEng         Press     
       303   1321.2412      3.5111776      0.27319839     4.1259437      298.12621    
       304   1638.0482      3.5062645      0.19584176     4.125575       283.51916    
Loop time of 0.0013839 on 1 procs for 1 steps with 3 atoms

run 1 pre yes post no
PPPM initialization ...
  using 12-bit tables for long-range coulomb (src/kspace.cpp:342)
  G vector (1/distance) = 0.28934131
  grid = 18 18 18
  stencil order = 5
  estimated absolute RMS force accuracy = 7.7110449e-05
  estimated relative force accuracy = 5.3550243e-06
  using double precision KISS FFT
  3d grid and FFT values/proc = 15625 5832
Generated 0 of 21 mixed pair_coeff terms from geometric mixing rule
Per MPI rank memory allocation (min/avg/max) = 9.773 | 9.773 | 9.773 Mbytes
   Step          Temp          E_pair         E_mol          TotEng         Press     
       304   1638.0482      3.5062645      0.19584176     4.125575       283.51916    
       305   1933.6353      3.4999767      0.12537538     4.125236       265.46752    
Loop time of 0.0014727 on 1 procs for 1 steps with 3 atoms

run 1 pre yes post no
PPPM initialization ...
  using 12-bit tables for long-range coulomb (src/kspace.cpp:342)
  G vector (1/distance) = 0.28934131
  grid = 18 18 18
  stencil order = 5
  estimated absolute RMS force accuracy = 7.7110449e-05
  estimated relative force accuracy = 5.3550243e-06
  using double precision KISS FFT
  3d grid and FFT values/proc = 15625 5832
Generated 0 of 21 mixed pair_coeff terms from geometric mixing rule
Per MPI rank memory allocation (min/avg/max) = 9.773 | 9.773 | 9.773 Mbytes
   Step          Temp          E_pair         E_mol          TotEng         Press     
       305   1933.6353      3.4999767      0.12537538     4.125236       265.46752    
       306   2187.3734      3.4924452      0.067023991    4.1249496      243.7706     
Loop time of 0.00183671 on 1 procs for 1 steps with 3 atoms

run 1 pre yes post no
PPPM initialization ...
  using 12-bit tables for long-range coulomb (src/kspace.cpp:342)
  G vector (1/distance) = 0.28934131
  grid = 18 18 18
  stencil order = 5
  estimated absolute RMS force accuracy = 7.7110449e-05
  estimated relative force accuracy = 5.3550243e-06
  using double precision KISS FFT
  3d grid and FFT values/proc = 15625 5832
Generated 0 of 21 mixed pair_coeff terms from geometric mixing rule
Per MPI rank memory allocation (min/avg/max) = 9.773 | 9.773 | 9.773 Mbytes
   Step          Temp          E_pair         E_mol          TotEng         Press     
       306   2187.3734      3.4924452      0.067023991    4.1249496      243.7706     
       307   2381.9166      3.4837935      0.025169108    4.1247364      218.37449    
Loop time of 0.00135544 on 1 procs for 1 steps with 3 atoms

run 1 pre yes post no
PPPM initialization ...
  using 12-bit tables for long-range coulomb (src/kspace.cpp:342)
  G vector (1/distance) = 0.28934131
  grid = 18 18 18
  stencil order = 5
  estimated absolute RMS force accuracy = 7.7110449e-05
  estimated relative force accuracy = 5.3550243e-06
  using double precision KISS FFT
  3d grid and FFT values/proc = 15625 5832
Generated 0 of 21 mixed pair_coeff terms from geometric mixing rule
Per MPI rank memory allocation (min/avg/max) = 9.773 | 9.773 | 9.773 Mbytes
   Step          Temp          E_pair         E_mol          TotEng         Press     
       307   2381.9166      3.4837935      0.025169108    4.1247364      218.37449    
       308   2504.4101      3.4741302      0.0030395147   4.1246105      189.4035     
Loop time of 0.00106521 on 1 procs for 1 steps with 3 atoms

run 1 pre yes post no
PPPM initialization ...
  using 12-bit tables for long-range coulomb (src/kspace.cpp:342)
  G vector (1/distance) = 0.28934131
  grid = 18 18 18
  stencil order = 5
  estimated absolute RMS force accuracy = 7.7110449e-05
  estimated relative force accuracy = 5.3550243e-06
  using double precision KISS FFT
  3d grid and FFT values/proc = 15625 5832
Generated 0 of 21 mixed pair_coeff terms from geometric mixing rule
Per MPI rank memory allocation (min/avg/max) = 9.773 | 9.773 | 9.773 Mbytes
   Step          Temp          E_pair         E_mol          TotEng         Press     
       308   2504.4101      3.4741302      0.0030395147   4.1246105      189.4035     
       309   2547.3825      3.4635478      0.0024829946   4.1245809      157.18062    
Loop time of 0.00112267 on 1 procs for 1 steps with 3 atoms

run 1 pre yes post no
PPPM initialization ...
  using 12-bit tables for long-range coulomb (src/kspace.cpp:342)
  G vector (1/distance) = 0.28934131
  grid = 18 18 18
  stencil order = 5
  estimated absolute RMS force accuracy = 7.7110449e-05
  estimated relative force accuracy = 5.3550243e-06
  using double precision KISS FFT
  3d grid and FFT values/proc = 15625 5832
Generated 0 of 21 mixed pair_coeff terms from geometric mixing rule
Per MPI rank memory allocation (min/avg/max) = 9.773 | 9.773 | 9.773 Mbytes
   Step          Temp          E_pair         E_mol          TotEng         Press     
       309   2547.3825      3.4635478      0.0024829946   4.1245809      157.18062    
       310   2509.2605      3.4521184      0.023835256    4.1246484      122.23477    
Loop time of 0.00104626 on 1 procs for 1 steps with 3 atoms

run 1 pre yes post no
PPPM initialization ...
  using 12-bit tables for long-range coulomb (src/kspace.cpp:342)
  G vector (1/distance) = 0.28934131
  grid = 18 18 18
  stencil order = 5
  estimated absolute RMS force accuracy = 7.7110449e-05
  estimated relative force accuracy = 5.3550243e-06
  using double precision KISS FFT
  3d grid and FFT values/proc = 15625 5832
Generated 0 of 21 mixed pair_coeff terms from geometric mixing rule
Per MPI rank memory allocation (min/avg/max) = 9.773 | 9.773 | 9.773 Mbytes
   Step          Temp          E_pair         E_mol          TotEng         Press     
       310   2509.2605      3.4521184      0.023835256    4.1246484      122.23477    
       311   2394.4675      3.4398946      0.06589523     4.1248083      85.293865    
Loop time of 0.00137043 on 1 procs for 1 steps with 3 atoms

run 1 pre yes post no
PPPM initialization ...
  using 12-bit tables for long-range coulomb (src/kspace.cpp:342)
  G vector (1/distance) = 0.28934131
  grid = 18 18 18
  stencil order = 5
  estimated absolute RMS force accuracy = 7.7110449e-05
  estimated relative force accuracy = 5.3550243e-06
  using double precision KISS FFT
  3d grid and FFT values/proc = 15625 5832
Generated 0 of 21 mixed pair_coeff terms from geometric mixing rule
Per MPI rank memory allocation (min/avg/max) = 9.773 | 9.773 | 9.773 Mbytes
   Step          Temp          E_pair         E_mol          TotEng         Press     
       311   2394.4675      3.4398946      0.06589523     4.1248083      85.293865    
       312   2213.1029      3.4269082      0.12600848     4.1250487      47.263722    
Loop time of 0.0016453 on 1 procs for 1 steps with 3 atoms

run 1 pre yes post no
PPPM initialization ...
  using 12-bit tables for long-range coulomb (src/kspace.cpp:342)
  G vector (1/distance) = 0.28934131
  grid = 18 18 18
  stencil order = 5
  estimated absolute RMS force accuracy = 7.7110449e-05
  estimated relative force accuracy = 5.3550243e-06
  using double precision KISS FFT
  3d grid and FFT values/proc = 15625 5832
Generated 0 of 21 mixed pair_coeff terms from geometric mixing rule
Per MPI rank memory allocation (min/avg/max) = 9.773 | 9.773 | 9.773 Mbytes
   Step          Temp          E_pair         E_mol          TotEng         Press     
       312   2213.1029      3.4269082      0.12600848     4.1250487      47.263722    
       313   1980.2204      3.4131734      0.20025285     4.1253534      9.1936721    
Loop time of 0.0011547 on 1 procs for 1 steps with 3 atoms

run 1 pre yes post no
PPPM initialization ...
  using 12-bit tables for long-range coulomb (src/kspace.cpp:342)
  G vector (1/distance) = 0.28934131
  grid = 18 18 18
  stencil order = 5
  estimated absolute RMS force accuracy = 7.7110449e-05
  estimated relative force accuracy = 5.3550243e-06
  using double precision KISS FFT
  3d grid and FFT values/proc = 15625 5832
Generated 0 of 21 mixed pair_coeff terms from geometric mixing rule
Per MPI rank memory allocation (min/avg/max) = 9.773 | 9.773 | 9.773 Mbytes
   Step          Temp          E_pair         E_mol          TotEng         Press     
       313   1980.2204      3.4131734      0.20025285     4.1253534      9.1936721    
       314   1714.76        3.398685       0.28371313     4.1256984     -27.769418    
Loop time of 0.00128723 on 1 procs for 1 steps with 3 atoms

run 1 pre yes post no
PPPM initialization ...
  using 12-bit tables for long-range coulomb (src/kspace.cpp:342)
  G vector (1/distance) = 0.28934131
  grid = 18 18 18
  stencil order = 5
  estimated absolute RMS force accuracy = 7.7110449e-05
  estimated relative force accuracy = 5.3550243e-06
  using double precision KISS FFT
  3d grid and FFT values/proc = 15625 5832
Generated 0 of 21 mixed pair_coeff terms from geometric mixing rule
Per MPI rank memory allocation (min/avg/max) = 9.773 | 9.773 | 9.773 Mbytes
   Step          Temp          E_pair         E_mol          TotEng         Press     
       314   1714.76        3.398685       0.28371313     4.1256984     -27.769418    
       315   1438.2068      3.38343        0.37082541     4.126061      -62.435266    
Loop time of 0.00110009 on 1 procs for 1 steps with 3 atoms

run 1 pre yes post no
PPPM initialization ...
  using 12-bit tables for long-range coulomb (src/kspace.cpp:342)
  G vector (1/distance) = 0.28934131
  grid = 18 18 18
  stencil order = 5
  estimated absolute RMS force accuracy = 7.7110449e-05
  estimated relative force accuracy = 5.3550243e-06
  using double precision KISS FFT
  3d grid and FFT values/proc = 15625 5832
Generated 0 of 21 mixed pair_coeff terms from geometric mixing rule
Per MPI rank memory allocation (min/avg/max) = 9.773 | 9.773 | 9.773 Mbytes
   Step          Temp          E_pair         E_mol          TotEng         Press     
       315   1438.2068      3.38343        0.37082541     4.126061      -62.435266    
       316   1173.0732      3.367385       0.45576651     4.1264148     -93.630087    
Loop time of 0.00115326 on 1 procs for 1 steps with 3 atoms

run 1 pre yes post no
PPPM initialization ...
  using 12-bit tables for long-range coulomb (src/kspace.cpp:342)
  G vector (1/distance) = 0.28934131
  grid = 18 18 18
  stencil order = 5
  estimated absolute RMS force accuracy = 7.7110449e-05
  estimated relative force accuracy = 5.3550243e-06
  using double precision KISS FFT
  3d grid and FFT values/proc = 15625 5832
Generated 0 of 21 mixed pair_coeff terms from geometric mixing rule
Per MPI rank memory allocation (min/avg/max) = 9.773 | 9.773 | 9.773 Mbytes
   Step          Temp          E_pair         E_mol          TotEng         Press     
       316   1173.0732      3.367385       0.45576651     4.1264148     -93.630087    
       317   941.31235      3.3505247      0.53286091     4.126734      -120.2576     
Loop time of 0.00127256 on 1 procs for 1 steps with 3 atoms

run 1 pre yes post no
PPPM initialization ...
  using 12-bit tables for long-range coulomb (src/kspace.cpp:342)
  G vector (1/distance) = 0.28934131
  grid = 18 18 18
  stencil order = 5
  estimated absolute RMS force accuracy = 7.7110449e-05
  estimated relative force accuracy = 5.3550243e-06
  using double precision KISS FFT
  3d grid and FFT values/proc = 15625 5832
Generated 0 of 21 mixed pair_coeff terms from geometric mixing rule
Per MPI rank memory allocation (min/avg/max) = 9.773 | 9.773 | 9.773 Mbytes
   Step          Temp          E_pair         E_mol          TotEng         Press     
       317   941.31235      3.3505247      0.53286091     4.126734      -120.2576     
       318   762.77583      3.3328277      0.59697614     4.1269969     -141.35762    
Loop time of 0.00147223 on 1 procs for 1 steps with 3 atoms

run 1 pre yes post no
PPPM initialization ...
  using 12-bit tables for long-range coulomb (src/kspace.cpp:342)
  G vector (1/distance) = 0.28934131
  grid = 18 18 18
  stencil order = 5
  estimated absolute RMS force accuracy = 7.7110449e-05
  estimated relative force accuracy = 5.3550243e-06
  using double precision KISS FFT
  3d grid and FFT values/proc = 15625 5832
Generated 0 of 21 mixed pair_coeff terms from geometric mixing rule
Per MPI rank memory allocation (min/avg/max) = 9.773 | 9.773 | 9.773 Mbytes
   Step          Temp          E_pair         E_mol          TotEng         Press     
       318   762.77583      3.3328277      0.59697614     4.1269969     -141.35762    
       319   653.82572      3.3142806      0.64387838     4.1271862     -156.15832    
Loop time of 0.00124743 on 1 procs for 1 steps with 3 atoms

run 1 pre yes post no
PPPM initialization ...
  using 12-bit tables for long-range coulomb (src/kspace.cpp:342)
  G vector (1/distance) = 0.28934131
  grid = 18 18 18
  stencil order = 5
  estimated absolute RMS force accuracy = 7.7110449e-05
  estimated relative force accuracy = 5.3550243e-06
  using double precision KISS FFT
  3d grid and FFT values/proc = 15625 5832
Generated 0 of 21 mixed pair_coeff terms from geometric mixing rule
Per MPI rank memory allocation (min/avg/max) = 9.773 | 9.773 | 9.773 Mbytes
   Step          Temp          E_pair         E_mol          TotEng         Press     
       319   653.82572      3.3142806      0.64387838     4.1271862     -156.15832    
       320   626.20134      3.2948766      0.67052295     4.1272853     -164.11898    
Loop time of 0.0015367 on 1 procs for 1 steps with 3 atoms

run 1 pre yes post no
PPPM initialization ...
  using 12-bit tables for long-range coulomb (src/kspace.cpp:342)
  G vector (1/distance) = 0.28934131
  grid = 18 18 18
  stencil order = 5
  estimated absolute RMS force accuracy = 7.7110449e-05
  estimated relative force accuracy = 5.3550243e-06
  using double precision KISS FFT
  3d grid and FFT values/proc = 15625 5832
Generated 0 of 21 mixed pair_coeff terms from geometric mixing rule
Per MPI rank memory allocation (min/avg/max) = 9.773 | 9.773 | 9.773 Mbytes
   Step          Temp          E_pair         E_mol          TotEng         Press     
       320   626.20134      3.2948766      0.67052295     4.1272853     -164.11898    
       321   686.2218       3.2746303      0.6752587      4.1272913     -164.95936    
Loop time of 0.00110141 on 1 procs for 1 steps with 3 atoms

run 1 pre yes post no
PPPM initialization ...
  using 12-bit tables for long-range coulomb (src/kspace.cpp:342)
  G vector (1/distance) = 0.28934131
  grid = 18 18 18
  stencil order = 5
  estimated absolute RMS force accuracy = 7.7110449e-05
  estimated relative force accuracy = 5.3550243e-06
  using double precision KISS FFT
  3d grid and FFT values/proc = 15625 5832
Generated 0 of 21 mixed pair_coeff terms from geometric mixing rule
Per MPI rank memory allocation (min/avg/max) = 9.773 | 9.773 | 9.773 Mbytes
   Step          Temp          E_pair         E_mol          TotEng         Press     
       321   686.2218       3.2746303      0.6752587      4.1272913     -164.95936    
       322   834.38261      3.2535667      0.65793175     4.1272033     -158.67545    
Loop time of 0.00109721 on 1 procs for 1 steps with 3 atoms

run 1 pre yes post no
PPPM initialization ...
  using 12-bit tables for long-range coulomb (src/kspace.cpp:342)
  G vector (1/distance) = 0.28934131
  grid = 18 18 18
  stencil order = 5
  estimated absolute RMS force accuracy = 7.7110449e-05
  estimated relative force accuracy = 5.3550243e-06
  using double precision KISS FFT
  3d grid and FFT values/proc = 15625 5832
Generated 0 of 21 mixed pair_coeff terms from geometric mixing rule
Per MPI rank memory allocation (min/avg/max) = 9.773 | 9.773 | 9.773 Mbytes
   Step          Temp          E_pair         E_mol          TotEng         Press     
       322   834.38261      3.2535667      0.65793175     4.1272033     -158.67545    
       323   1065.3766      3.2317263      0.61988088     4.1270286     -145.53891    
Loop time of 0.00118983 on 1 procs for 1 steps with 3 atoms

run 1 pre yes post no
PPPM initialization ...
  using 12-bit tables for long-range coulomb (src/kspace.cpp:342)
  G vector (1/distance) = 0.28934131
  grid = 18 18 18
  stencil order = 5
  estimated absolute RMS force accuracy = 7.7110449e-05
  estimated relative force accuracy = 5.3550243e-06
  using double precision KISS FFT
  3d grid and FFT values/proc = 15625 5832
Generated 0 of 21 mixed pair_coeff terms from geometric mixing rule
Per MPI rank memory allocation (min/avg/max) = 9.773 | 9.773 | 9.773 Mbytes
   Step          Temp          E_pair         E_mol          TotEng         Press     
       323   1065.3766      3.2317263      0.61988088     4.1270286     -145.53891    
       324   1368.5388      3.2091613      0.56382486     4.1267812     -126.08114    
Loop time of 0.00113405 on 1 procs for 1 steps with 3 atoms

run 1 pre yes post no
PPPM initialization ...
  using 12-bit tables for long-range coulomb (src/kspace.cpp:342)
  G vector (1/distance) = 0.28934131
  grid = 18 18 18
  stencil order = 5
  estimated absolute RMS force accuracy = 7.7110449e-05
  estimated relative force accuracy = 5.3550243e-06
  using double precision KISS FFT
  3d grid and FFT values/proc = 15625 5832
Generated 0 of 21 mixed pair_coeff terms from geometric mixing rule
Per MPI rank memory allocation (min/avg/max) = 9.773 | 9.773 | 9.773 Mbytes
   Step          Temp          E_pair         E_mol          TotEng         Press     
       324   1368.5388      3.2091613      0.56382486     4.1267812     -126.08114    
       325   1728.6852      3.1859317      0.49364959     4.1264815     -101.06272    
Loop time of 0.00119416 on 1 procs for 1 steps with 3 atoms

run 1 pre yes post no
PPPM initialization ...
  using 12-bit tables for long-range coulomb (src/kspace.cpp:342)
  G vector (1/distance) = 0.28934131
  grid = 18 18 18
  stencil order = 5
  estimated absolute RMS force accuracy = 7.7110449e-05
  estimated relative force accuracy = 5.3550243e-06
  using double precision KISS FFT
  3d grid and FFT values/proc = 15625 5832
Generated 0 of 21 mixed pair_coeff terms from geometric mixing rule
Per MPI rank memory allocation (min/avg/max) = 9.773 | 9.773 | 9.773 Mbytes
   Step          Temp          E_pair         E_mol          TotEng         Press     
       325   1728.6852      3.1859317      0.49364959     4.1264815     -101.06272    
       326   2127.2859      3.1620948      0.4141104      4.1261518     -71.430531    
Loop time of 0.00134745 on 1 procs for 1 steps with 3 atoms

run 1 pre yes post no
PPPM initialization ...
  using 12-bit tables for long-range coulomb (src/kspace.cpp:342)
  G vector (1/distance) = 0.28934131
  grid = 18 18 18
  stencil order = 5
  estimated absolute RMS force accuracy = 7.7110449e-05
  estimated relative force accuracy = 5.3550243e-06
  using double precision KISS FFT
  3d grid and FFT values/proc = 15625 5832
Generated 0 of 21 mixed pair_coeff terms from geometric mixing rule
Per MPI rank memory allocation (min/avg/max) = 9.773 | 9.773 | 9.773 Mbytes
   Step          Temp          E_pair         E_mol          TotEng         Press     
       326   2127.2859      3.1620948      0.4141104      4.1261518     -71.430531    
       327   2543.8894      3.1376991      0.33047086     4.125817      -38.26503     
Loop time of 0.00165132 on 1 procs for 1 steps with 3 atoms

run 1 pre yes post no
PPPM initialization ...
  using 12-bit tables for long-range coulomb (src/kspace.cpp:342)
  G vector (1/distance) = 0.28934131
  grid = 18 18 18
  stencil order = 5
  estimated absolute RMS force accuracy = 7.7110449e-05
  estimated relative force accuracy = 5.3550243e-06
  using double precision KISS FFT
  3d grid and FFT values/proc = 15625 5832
Generated 0 of 21 mixed pair_coeff terms from geometric mixing rule
Per MPI rank memory allocation (min/avg/max) = 9.773 | 9.773 | 9.773 Mbytes
   Step          Temp          E_pair         E_mol          TotEng         Press     
       327   2543.8894      3.1376991      0.33047086     4.125817      -38.26503     
       328   2957.6946      3.1127775      0.24810448     4.125506      -2.7214011    
Loop time of 0.00119977 on 1 procs for 1 steps with 3 atoms

run 1 pre yes post no
PPPM initialization ...
  using 12-bit tables for long-range coulomb (src/kspace.cpp:342)
  G vector (1/distance) = 0.28934131
  grid = 18 18 18
  stencil order = 5
  estimated absolute RMS force accuracy = 7.7110449e-05
  estimated relative force accuracy = 5.3550243e-06
  using double precision KISS FFT
  3d grid and FFT values/proc = 15625 5832
Generated 0 of 21 mixed pair_coeff terms from geometric mixing rule
Per MPI rank memory allocation (min/avg/max) = 9.773 | 9.773 | 9.773 Mbytes
   Step          Temp          E_pair         E_mol          TotEng         Press     
       328   2957.6946      3.1127775      0.24810448     4.125506      -2.7214011    
       329   3349.156       3.0873291      0.17208852     4.1252424      34.031034    
Loop time of 0.00111275 on 1 procs for 1 steps with 3 atoms

run 1 pre yes post no
PPPM initialization ...
  using 12-bit tables for long-range coulomb (src/kspace.cpp:342)
  G vector (1/distance) = 0.28934131
  grid = 18 18 18
  stencil order = 5
  estimated absolute RMS force accuracy = 7.7110449e-05
  estimated relative force accuracy = 5.3550243e-06
  using double precision KISS FFT
  3d grid and FFT values/proc = 15625 5832
Generated 0 of 21 mixed pair_coeff terms from geometric mixing rule
Per MPI rank memory allocation (min/avg/max) = 9.773 | 9.773 | 9.773 Mbytes
   Step          Temp          E_pair         E_mol          TotEng         Press     
       329   3349.156       3.0873291      0.17208852     4.1252424      34.031034    
       330   3701.5027      3.0613145      0.10682036     4.1250484      70.867916    
Loop time of 0.00108894 on 1 procs for 1 steps with 3 atoms

run 1 pre yes post no
PPPM initialization ...
  using 12-bit tables for long-range coulomb (src/kspace.cpp:342)
  G vector (1/distance) = 0.28934131
  grid = 18 18 18
  stencil order = 5
  estimated absolute RMS force accuracy = 7.7110449e-05
  estimated relative force accuracy = 5.3550243e-06
  using double precision KISS FFT
  3d grid and FFT values/proc = 15625 5832
Generated 0 of 21 mixed pair_coeff terms from geometric mixing rule
Per MPI rank memory allocation (min/avg/max) = 9.773 | 9.773 | 9.773 Mbytes
   Step          Temp          E_pair         E_mol          TotEng         Press     
       330   3701.5027      3.0613145      0.10682036     4.1250484      70.867916    
       331   4002.0541      3.0346443      0.055685588    4.124942       106.76272    
Loop time of 0.0010982 on 1 procs for 1 steps with 3 atoms

run 1 pre yes post no
PPPM initialization ...
  using 12-bit tables for long-range coulomb (src/kspace.cpp:342)
  G vector (1/distance) = 0.28934131
  grid = 18 18 18
  stencil order = 5
  estimated absolute RMS force accuracy = 7.7110449e-05
  estimated relative force accuracy = 5.3550243e-06
  using double precision KISS FFT
  3d grid and FFT values/proc = 15625 5832
Generated 0 of 21 mixed pair_coeff terms from geometric mixing rule
Per MPI rank memory allocation (min/avg/max) = 9.773 | 9.773 | 9.773 Mbytes
   Step          Temp          E_pair         E_mol          TotEng         Press     
       331   4002.0541      3.0346443      0.055685588    4.124942       106.76272    
       332   4243.2304      3.0071647      0.020804226    4.1249301      140.83004    
Loop time of 0.00111315 on 1 procs for 1 steps with 3 atoms

run 1 pre yes post no
PPPM initialization ...
  using 12-bit tables for long-range coulomb (src/kspace.cpp:342)
  G vector (1/distance) = 0.28934131
  grid = 18 18 18
  stencil order = 5
  estimated absolute RMS force accuracy = 7.7110449e-05
  estimated relative force accuracy = 5.3550243e-06
  using double precision KISS FFT
  3d grid and FFT values/proc = 15625 5832
Generated 0 of 21 mixed pair_coeff terms from geometric mixing rule
Per MPI rank memory allocation (min/avg/max) = 9.773 | 9.773 | 9.773 Mbytes
   Step          Temp          E_pair         E_mol          TotEng         Press     
       332   4243.2304      3.0071647      0.020804226    4.1249301      140.83004    
       333   4423.1703      2.9786637      0.0028763819   4.1250193      172.35704    
Loop time of 0.00113665 on 1 procs for 1 steps with 3 atoms

run 1 pre yes post no
PPPM initialization ...
  using 12-bit tables for long-range coulomb (src/kspace.cpp:342)
  G vector (1/distance) = 0.28934131
  grid = 18 18 18
  stencil order = 5
  estimated absolute RMS force accuracy = 7.7110449e-05
  estimated relative force accuracy = 5.3550243e-06
  using double precision KISS FFT
  3d grid and FFT values/proc = 15625 5832
Generated 0 of 21 mixed pair_coeff terms from geometric mixing rule
Per MPI rank memory allocation (min/avg/max) = 9.773 | 9.773 | 9.773 Mbytes
   Step          Temp          E_pair         E_mol          TotEng         Press     
       333   4423.1703      2.9786637      0.0028763819   4.1250193      172.35704    
       334   4545.8981      2.9488534      0.0011422751   4.1252025      200.81951    
Loop time of 0.00113587 on 1 procs for 1 steps with 3 atoms

run 1 pre yes post no
PPPM initialization ...
  using 12-bit tables for long-range coulomb (src/kspace.cpp:342)
  G vector (1/distance) = 0.28934131
  grid = 18 18 18
  stencil order = 5
  estimated absolute RMS force accuracy = 7.7110449e-05
  estimated relative force accuracy = 5.3550243e-06
  using double precision KISS FFT
  3d grid and FFT values/proc = 15625 5832
Generated 0 of 21 mixed pair_coeff terms from geometric mixing rule
Per MPI rank memory allocation (min/avg/max) = 9.773 | 9.773 | 9.773 Mbytes
   Step          Temp          E_pair         E_mol          TotEng         Press     
       334   4545.8981      2.9488534      0.0011422751   4.1252025      200.81951    
       335   4621.0109      2.9173766      0.01346375     4.1254655      225.88325    
Loop time of 0.00106629 on 1 procs for 1 steps with 3 atoms

run 1 pre yes post no
PPPM initialization ...
  using 12-bit tables for long-range coulomb (src/kspace.cpp:342)
  G vector (1/distance) = 0.28934131
  grid = 18 18 18
  stencil order = 5
  estimated absolute RMS force accuracy = 7.7110449e-05
  estimated relative force accuracy = 5.3550243e-06
  using double precision KISS FFT
  3d grid and FFT values/proc = 15625 5832
Generated 0 of 21 mixed pair_coeff terms from geometric mixing rule
Per MPI rank memory allocation (min/avg/max) = 9.773 | 9.773 | 9.773 Mbytes
   Step          Temp          E_pair         E_mol          TotEng         Press     
       335   4621.0109      2.9173766      0.01346375     4.1254655      225.88325    
       336   4662.8913      2.8838107      0.036525711    4.1257884      247.38975    
Loop time of 0.00110085 on 1 procs for 1 steps with 3 atoms

run 1 pre yes post no
PPPM initialization ...
  using 12-bit tables for long-range coulomb (src/kspace.cpp:342)
  G vector (1/distance) = 0.28934131
  grid = 18 18 18
  stencil order = 5
  estimated absolute RMS force accuracy = 7.7110449e-05
  estimated relative force accuracy = 5.3550243e-06
  using double precision KISS FFT
  3d grid and FFT values/proc = 15625 5832
Generated 0 of 21 mixed pair_coeff terms from geometric mixing rule
Per MPI rank memory allocation (min/avg/max) = 9.773 | 9.773 | 9.773 Mbytes
   Step          Temp          E_pair         E_mol          TotEng         Press     
       336   4662.8913      2.8838107      0.036525711    4.1257884      247.38975    
       337   4689.4871      2.8476697      0.066146596    4.1261439      265.32783    
Loop time of 0.00105656 on 1 procs for 1 steps with 3 atoms

run 1 pre yes post no
PPPM initialization ...
  using 12-bit tables for long-range coulomb (src/kspace.cpp:342)
  G vector (1/distance) = 0.28934131
  grid = 18 18 18
  stencil order = 5
  estimated absolute RMS force accuracy = 7.7110449e-05
  estimated relative force accuracy = 5.3550243e-06
  using double precision KISS FFT
  3d grid and FFT values/proc = 15625 5832
Generated 0 of 21 mixed pair_coeff terms from geometric mixing rule
Per MPI rank memory allocation (min/avg/max) = 9.773 | 9.773 | 9.773 Mbytes
   Step          Temp          E_pair         E_mol          TotEng         Press     
       337   4689.4871      2.8476697      0.066146596    4.1261439      265.32783    
       338   4720.7385      2.8084154      0.097677619    4.1264997      279.79381    
Loop time of 0.0010596 on 1 procs for 1 steps with 3 atoms

run 1 pre yes post no
PPPM initialization ...
  using 12-bit tables for long-range coulomb (src/kspace.cpp:342)
  G vector (1/distance) = 0.28934131
  grid = 18 18 18
  stencil order = 5
  estimated absolute RMS force accuracy = 7.7110449e-05
  estimated relative force accuracy = 5.3550243e-06
  using double precision KISS FFT
  3d grid and FFT values/proc = 15625 5832
Generated 0 of 21 mixed pair_coeff terms from geometric mixing rule
Per MPI rank memory allocation (min/avg/max) = 9.773 | 9.773 | 9.773 Mbytes
   Step          Temp          E_pair         E_mol          TotEng         Press     
       338   4720.7385      2.8084154      0.097677619    4.1264997      279.79381    
       339   4776.7655      2.7654717      0.1264615      4.126824       290.944      
Loop time of 0.00103773 on 1 procs for 1 steps with 3 atoms

run 1 pre yes post no
PPPM initialization ...
  using 12-bit tables for long-range coulomb (src/kspace.cpp:342)
  G vector (1/distance) = 0.28934131
  grid = 18 18 18
  stencil order = 5
  estimated absolute RMS force accuracy = 7.7110449e-05
  estimated relative force accuracy = 5.3550243e-06
  using double precision KISS FFT
  3d grid and FFT values/proc = 15625 5832
Generated 0 of 21 mixed pair_coeff terms from geometric mixing rule
Per MPI rank memory allocation (min/avg/max) = 9.773 | 9.773 | 9.773 Mbytes
   Step          Temp          E_pair         E_mol          TotEng         Press     
       339   4776.7655      2.7654717      0.1264615      4.126824       290.944      
       340   4875.959       2.7182353      0.14831374     4.1270834      298.94336    
Loop time of 0.00105255 on 1 procs for 1 steps with 3 atoms

run 1 pre yes post no
PPPM initialization ...
  using 12-bit tables for long-range coulomb (src/kspace.cpp:342)
  G vector (1/distance) = 0.28934131
  grid = 18 18 18
  stencil order = 5
  estimated absolute RMS force accuracy = 7.7110449e-05
  estimated relative force accuracy = 5.3550243e-06
  using double precision KISS FFT
  3d grid and FFT values/proc = 15625 5832
Generated 0 of 21 mixed pair_coeff terms from geometric mixing rule
Per MPI rank memory allocation (min/avg/max) = 9.773 | 9.773 | 9.773 Mbytes
   Step          Temp          E_pair         E_mol          TotEng         Press     
       340   4875.959       2.7182353      0.14831374     4.1270834      298.94336    
       341   5033.1414      2.6660968      0.15998392     4.1272499      303.91652    
Loop time of 0.0013427 on 1 procs for 1 steps with 3 atoms

run 1 pre yes post no
PPPM initialization ...
  using 12-bit tables for long-range coulomb (src/kspace.cpp:342)
  G vector (1/distance) = 0.28934131
  grid = 18 18 18
  stencil order = 5
  estimated absolute RMS force accuracy = 7.7110449e-05
  estimated relative force accuracy = 5.3550243e-06
  using double precision KISS FFT
  3d grid and FFT values/proc = 15625 5832
Generated 0 of 21 mixed pair_coeff terms from geometric mixing rule
Per MPI rank memory allocation (min/avg/max) = 9.773 | 9.773 | 9.773 Mbytes
   Step          Temp          E_pair         E_mol          TotEng         Press     
       341   5033.1414      2.6660968      0.15998392     4.1272499      303.91652    
       342   5257.9652      2.6084587      0.15955269     4.1273021      305.90556    
Loop time of 0.00115742 on 1 procs for 1 steps with 3 atoms

run 1 pre yes post no
PPPM initialization ...
  using 12-bit tables for long-range coulomb (src/kspace.cpp:342)
  G vector (1/distance) = 0.28934131
  grid = 18 18 18
  stencil order = 5
  estimated absolute RMS force accuracy = 7.7110449e-05
  estimated relative force accuracy = 5.3550243e-06
  using double precision KISS FFT
  3d grid and FFT values/proc = 15625 5832
Generated 0 of 21 mixed pair_coeff terms from geometric mixing rule
Per MPI rank memory allocation (min/avg/max) = 9.773 | 9.773 | 9.773 Mbytes
   Step          Temp          E_pair         E_mol          TotEng         Press     
       342   5257.9652      2.6084587      0.15955269     4.1273021      305.90556    
       343   5553.7117      2.5447581      0.14672248     4.1272278      304.84001    
Loop time of 0.0011843 on 1 procs for 1 steps with 3 atoms

run 1 pre yes post no
PPPM initialization ...
  using 12-bit tables for long-range coulomb (src/kspace.cpp:342)
  G vector (1/distance) = 0.28934131
  grid = 18 18 18
  stencil order = 5
  estimated absolute RMS force accuracy = 7.7110449e-05
  estimated relative force accuracy = 5.3550243e-06
  using double precision KISS FFT
  3d grid and FFT values/proc = 15625 5832
Generated 0 of 21 mixed pair_coeff terms from geometric mixing rule
Per MPI rank memory allocation (min/avg/max) = 9.773 | 9.773 | 9.773 Mbytes
   Step          Temp          E_pair         E_mol          TotEng         Press     
       343   5553.7117      2.5447581      0.14672248     4.1272278      304.84001    
       344   5916.618       2.4744905      0.12296796     4.1270243      300.52292    
Loop time of 0.001042 on 1 procs for 1 steps with 3 atoms

run 1 pre yes post no
PPPM initialization ...
  using 12-bit tables for long-range coulomb (src/kspace.cpp:342)
  G vector (1/distance) = 0.28934131
  grid = 18 18 18
  stencil order = 5
  estimated absolute RMS force accuracy = 7.7110449e-05
  estimated relative force accuracy = 5.3550243e-06
  using double precision KISS FFT
  3d grid and FFT values/proc = 15625 5832
Generated 0 of 21 mixed pair_coeff terms from geometric mixing rule
Per MPI rank memory allocation (min/avg/max) = 9.773 | 9.773 | 9.773 Mbytes
   Step          Temp          E_pair         E_mol          TotEng         Press     
       344   5916.618       2.4744905      0.12296796     4.1270243      300.52292    
       345   6335.8121      2.3972422      0.091524402    4.1267026      292.63583    
Loop time of 0.00273028 on 1 procs for 1 steps with 3 atoms

run 1 pre yes post no
PPPM initialization ...
  using 12-bit tables for long-range coulomb (src/kspace.cpp:342)
  G vector (1/distance) = 0.28934131
  grid = 18 18 18
  stencil order = 5
  estimated absolute RMS force accuracy = 7.7110449e-05
  estimated relative force accuracy = 5.3550243e-06
  using double precision KISS FFT
  3d grid and FFT values/proc = 15625 5832
Generated 0 of 21 mixed pair_coeff terms from geometric mixing rule
Per MPI rank memory allocation (min/avg/max) = 9.773 | 9.773 | 9.773 Mbytes
   Step          Temp          E_pair         E_mol          TotEng         Press     
       345   6335.8121      2.3972422      0.091524402    4.1267026      292.63583    
       346   6793.8741      2.3127185      0.057208544    4.1262813      280.76286    
Loop time of 0.00269703 on 1 procs for 1 steps with 3 atoms

run 1 pre yes post no
PPPM initialization ...
  using 12-bit tables for long-range coulomb (src/kspace.cpp:342)
  G vector (1/distance) = 0.28934131
  grid = 18 18 18
  stencil order = 5
  estimated absolute RMS force accuracy = 7.7110449e-05
  estimated relative force accuracy = 5.3550243e-06
  using double precision KISS FFT
  3d grid and FFT values/proc = 15625 5832
Generated 0 of 21 mixed pair_coeff terms from geometric mixing rule
Per MPI rank memory allocation (min/avg/max) = 9.773 | 9.773 | 9.773 Mbytes
   Step          Temp          E_pair         E_mol          TotEng         Press     
       346   6793.8741      2.3127185      0.057208544    4.1262813      280.76286    
       347   7267.9737      2.2207875      0.026083384    4.1257896      264.43327    
Loop time of 0.00268507 on 1 procs for 1 steps with 3 atoms

run 1 pre yes post no
PPPM initialization ...
  using 12-bit tables for long-range coulomb (src/kspace.cpp:342)
  G vector (1/distance) = 0.28934131
  grid = 18 18 18
  stencil order = 5
  estimated absolute RMS force accuracy = 7.7110449e-05
  estimated relative force accuracy = 5.3550243e-06
  using double precision KISS FFT
  3d grid and FFT values/proc = 15625 5832
Generated 0 of 21 mixed pair_coeff terms from geometric mixing rule
Per MPI rank memory allocation (min/avg/max) = 9.773 | 9.773 | 9.773 Mbytes
   Step          Temp          E_pair         E_mol          TotEng         Press     
       347   7267.9737      2.2207875      0.026083384    4.1257896      264.43327    
       348   7731.4737      2.1215229      0.0049942412   4.12526        243.17895    
Loop time of 0.00263345 on 1 procs for 1 steps with 3 atoms

run 1 pre yes post no
PPPM initialization ...
  using 12-bit tables for long-range coulomb (src/kspace.cpp:342)
  G vector (1/distance) = 0.28934131
  grid = 18 18 18
  stencil order = 5
  estimated absolute RMS force accuracy = 7.7110449e-05
  estimated relative force accuracy = 5.3550243e-06
  using double precision KISS FFT
  3d grid and FFT values/proc = 15625 5832
Generated 0 of 21 mixed pair_coeff terms from geometric mixing rule
Per MPI rank memory allocation (min/avg/max) = 9.773 | 9.773 | 9.773 Mbytes
   Step          Temp          E_pair         E_mol          TotEng         Press     
       348   7731.4737      2.1215229      0.0049942412   4.12526        243.17895    
       349   8155.8468      2.0152604      0.0010153648   4.1247276      216.60272    
Loop time of 0.0025957 on 1 procs for 1 steps with 3 atoms

run 1 pre yes post no
PPPM initialization ...
  using 12-bit tables for long-range coulomb (src/kspace.cpp:342)
  G vector (1/distance) = 0.28934131
  grid = 18 18 18
  stencil order = 5
  estimated absolute RMS force accuracy = 7.7110449e-05
  estimated relative force accuracy = 5.3550243e-06
  using double precision KISS FFT
  3d grid and FFT values/proc = 15625 5832
Generated 0 of 21 mixed pair_coeff terms from geometric mixing rule
Per MPI rank memory allocation (min/avg/max) = 9.773 | 9.773 | 9.773 Mbytes
   Step          Temp          E_pair         E_mol          TotEng         Press     
       349   8155.8468      2.0152604      0.0010153648   4.1247276      216.60272    
       350   8512.7292      1.9026629      0.020853206    4.1242293      184.45177    
Loop time of 0.00261305 on 1 procs for 1 steps with 3 atoms

run 1 pre yes post no
PPPM initialization ...
  using 12-bit tables for long-range coulomb (src/kspace.cpp:342)
  G vector (1/distance) = 0.28934131
  grid = 18 18 18
  stencil order = 5
  estimated absolute RMS force accuracy = 7.7110449e-05
  estimated relative force accuracy = 5.3550243e-06
  using double precision KISS FFT
  3d grid and FFT values/proc = 15625 5832
Generated 0 of 21 mixed pair_coeff terms from geometric mixing rule
Per MPI rank memory allocation (min/avg/max) = 9.773 | 9.773 | 9.773 Mbytes
   Step          Temp          E_pair         E_mol          TotEng         Press     
       350   8512.7292      1.9026629      0.020853206    4.1242293      184.45177    
       351   8775.9626      1.7847866      0.070253739    4.1238047      146.69028    
Loop time of 0.00277856 on 1 procs for 1 steps with 3 atoms

run 1 pre yes post no
PPPM initialization ...
  using 12-bit tables for long-range coulomb (src/kspace.cpp:342)
  G vector (1/distance) = 0.28934131
  grid = 18 18 18
  stencil order = 5
  estimated absolute RMS force accuracy = 7.7110449e-05
  estimated relative force accuracy = 5.3550243e-06
  using double precision KISS FFT
  3d grid and FFT values/proc = 15625 5832
Generated 0 of 21 mixed pair_coeff terms from geometric mixing rule
Per MPI rank memory allocation (min/avg/max) = 9.773 | 9.773 | 9.773 Mbytes
   Step          Temp          E_pair         E_mol          TotEng         Press     
       351   8775.9626      1.7847866      0.070253739    4.1238047      146.69028    
       352   8923.6409      1.6631515      0.15345813     4.1235518      103.56732    
Loop time of 0.00295243 on 1 procs for 1 steps with 3 atoms

run 1 pre yes post no
PPPM initialization ...
  using 12-bit tables for long-range coulomb (src/kspace.cpp:342)
  G vector (1/distance) = 0.28934131
  grid = 18 18 18
  stencil order = 5
  estimated absolute RMS force accuracy = 7.7110449e-05
  estimated relative force accuracy = 5.3550243e-06
  using double precision KISS FFT
  3d grid and FFT values/proc = 15625 5832
Generated 0 of 21 mixed pair_coeff terms from geometric mixing rule
Per MPI rank memory allocation (min/avg/max) = 9.773 | 9.773 | 9.773 Mbytes
   Step          Temp          E_pair         E_mol          TotEng         Press     
       352   8923.6409      1.6631515      0.15345813     4.1235518      103.56732    
       353   8940.8213      1.5397955      0.27274945     4.1239287      55.683043    
Loop time of 0.00264903 on 1 procs for 1 steps with 3 atoms

run 1 pre yes post no
PPPM initialization ...
  using 12-bit tables for long-range coulomb (src/kspace.cpp:342)
  G vector (1/distance) = 0.28934131
  grid = 18 18 18
  stencil order = 5
  estimated absolute RMS force accuracy = 7.7110449e-05
  estimated relative force accuracy = 5.3550243e-06
  using double precision KISS FFT
  3d grid and FFT values/proc = 15625 5832
Generated 0 of 21 mixed pair_coeff terms from geometric mixing rule
Per MPI rank memory allocation (min/avg/max) = 9.773 | 9.773 | 9.773 Mbytes
   Step          Temp          E_pair         E_mol          TotEng         Press     
       353   8940.8213      1.5397955      0.27274945     4.1239287      55.683043    
       354   8824.9983      1.4172702      0.42815935     4.1268707      4.0710057    
Loop time of 0.00306358 on 1 procs for 1 steps with 3 atoms

run 1 pre yes post no
PPPM initialization ...
  using 12-bit tables for long-range coulomb (src/kspace.cpp:342)
  G vector (1/distance) = 0.28934131
  grid = 18 18 18
  stencil order = 5
  estimated absolute RMS force accuracy = 7.7110449e-05
  estimated relative force accuracy = 5.3550243e-06
  using double precision KISS FFT
  3d grid and FFT values/proc = 15625 5832
Generated 0 of 21 mixed pair_coeff terms from geometric mixing rule
Per MPI rank memory allocation (min/avg/max) = 9.773 | 9.773 | 9.773 Mbytes
   Step          Temp          E_pair         E_mol          TotEng         Press     
       354   8824.9983      1.4172702      0.42815935     4.1268707      4.0710057    
       355   8596.7185      1.298481       0.61752699     4.1384342     -49.704517    
Loop time of 0.00285932 on 1 procs for 1 steps with 3 atoms

run 1 pre yes post no
PPPM initialization ...
  using 12-bit tables for long-range coulomb (src/kspace.cpp:342)
  G vector (1/distance) = 0.28934131
  grid = 18 18 18
  stencil order = 5
  estimated absolute RMS force accuracy = 7.7110449e-05
  estimated relative force accuracy = 5.3550243e-06
  using double precision KISS FFT
  3d grid and FFT values/proc = 15625 5832
Generated 0 of 21 mixed pair_coeff terms from geometric mixing rule
Per MPI rank memory allocation (min/avg/max) = 9.773 | 9.773 | 9.773 Mbytes
   Step          Temp          E_pair         E_mol          TotEng         Press     
       355   8596.7185      1.298481       0.61752699     4.1384342     -49.704517    
       356   8310.9472      1.1862696      0.83735437     4.1721725     -103.57       
Loop time of 0.00330462 on 1 procs for 1 steps with 3 atoms

run 1 pre yes post no
PPPM initialization ...
  using 12-bit tables for long-range coulomb (src/kspace.cpp:342)
  G vector (1/distance) = 0.28934131
  grid = 18 18 18
  stencil order = 5
  estimated absolute RMS force accuracy = 7.7110449e-05
  estimated relative force accuracy = 5.3550243e-06
  using double precision KISS FFT
  3d grid and FFT values/proc = 15625 5832
Generated 0 of 21 mixed pair_coeff terms from geometric mixing rule
Per MPI rank memory allocation (min/avg/max) = 9.773 | 9.773 | 9.773 Mbytes
   Step          Temp          E_pair         E_mol          TotEng         Press     
       356   8310.9472      1.1862696      0.83735437     4.1721725     -103.57       
       357   8051.6349      1.082723       1.0849237      4.2491577     -155.37528    
Loop time of 0.00261362 on 1 procs for 1 steps with 3 atoms

run 1 pre yes post no
PPPM initialization ...
  using 12-bit tables for long-range coulomb (src/kspace.cpp:342)
  G vector (1/distance) = 0.28934131
  grid = 18 18 18
  stencil order = 5
  estimated absolute RMS force accuracy = 7.7110449e-05
  estimated relative force accuracy = 5.3550243e-06
  using double precision KISS FFT
  3d grid and FFT values/proc = 15625 5832
Generated 0 of 21 mixed pair_coeff terms from geometric mixing rule
Per MPI rank memory allocation (min/avg/max) = 9.773 | 9.773 | 9.773 Mbytes
   Step          Temp          E_pair         E_mol          TotEng         Press     
       357   8051.6349      1.082723       1.0849237      4.2491577     -155.37528    
       358   7891.5046      0.98873421     1.3611255      4.3899737     -203.81363    
Loop time of 0.00280952 on 1 procs for 1 steps with 3 atoms

run 1 pre yes post no
PPPM initialization ...
  using 12-bit tables for long-range coulomb (src/kspace.cpp:342)
  G vector (1/distance) = 0.28934131
  grid = 18 18 18
  stencil order = 5
  estimated absolute RMS force accuracy = 7.7110449e-05
  estimated relative force accuracy = 5.3550243e-06
  using double precision KISS FFT
  3d grid and FFT values/proc = 15625 5832
Generated 0 of 21 mixed pair_coeff terms from geometric mixing rule
Per MPI rank memory allocation (min/avg/max) = 9.773 | 9.773 | 9.773 Mbytes
   Step          Temp          E_pair         E_mol          TotEng         Press     
       358   7891.5046      0.98873421     1.3611255      4.3899737     -203.81363    
       359   7832.8844      0.90460767     1.6713386      4.6009058     -249.13822    
Loop time of 0.00323616 on 1 procs for 1 steps with 3 atoms

run 1 pre yes post no
PPPM initialization ...
  using 12-bit tables for long-range coulomb (src/kspace.cpp:342)
  G vector (1/distance) = 0.28934131
  grid = 18 18 18
  stencil order = 5
  estimated absolute RMS force accuracy = 7.7110449e-05
  estimated relative force accuracy = 5.3550243e-06
  using double precision KISS FFT
  3d grid and FFT values/proc = 15625 5832
Generated 0 of 21 mixed pair_coeff terms from geometric mixing rule
Per MPI rank memory allocation (min/avg/max) = 9.773 | 9.773 | 9.773 Mbytes
   Step          Temp          E_pair         E_mol          TotEng         Press     
       359   7832.8844      0.90460767     1.6713386      4.6009058     -249.13822    
       360   7800.8562      0.83175209     2.0216875      4.8701192     -292.41967    
Loop time of 0.00313928 on 1 procs for 1 steps with 3 atoms

run 1 pre yes post no
PPPM initialization ...
  using 12-bit tables for long-range coulomb (src/kspace.cpp:342)
  G vector (1/distance) = 0.28934131
  grid = 18 18 18
  stencil order = 5
  estimated absolute RMS force accuracy = 7.7110449e-05
  estimated relative force accuracy = 5.3550243e-06
  using double precision KISS FFT
  3d grid and FFT values/proc = 15625 5832
Generated 0 of 21 mixed pair_coeff terms from geometric mixing rule
Per MPI rank memory allocation (min/avg/max) = 9.773 | 9.773 | 9.773 Mbytes
   Step          Temp          E_pair         E_mol          TotEng         Press     
       360   7800.8562      0.83175209     2.0216875      4.8701192     -292.41967    
       361   7734.9445      0.77350556     2.4146008      5.1877464     -333.5235     
Loop time of 0.00368279 on 1 procs for 1 steps with 3 atoms

run 0 pre yes post no
PPPM initialization ...
  using 12-bit tables for long-range coulomb (src/kspace.cpp:342)
  G vector (1/distance) = 0.28934131
  grid = 18 18 18
  stencil order = 5
  estimated absolute RMS force accuracy = 7.7110449e-05
  estimated relative force accuracy = 5.3550243e-06
  using double precision KISS FFT
  3d grid and FFT values/proc = 15625 5832
Generated 0 of 21 mixed pair_coeff terms from geometric mixing rule
Per MPI rank memory allocation (min/avg/max) = 9.773 | 9.773 | 9.773 Mbytes
   Step          Temp          E_pair         E_mol          TotEng         Press     
       361   7734.9445      0.77350556     2.4146008      5.1877464     -333.5235     
Loop time of 8.31e-07 on 1 procs for 0 steps with 3 atoms

run 0 pre yes post no
PPPM initialization ...
  using 12-bit tables for long-range coulomb (src/kspace.cpp:342)
  G vector (1/distance) = 0.28934131
  grid = 18 18 18
  stencil order = 5
  estimated absolute RMS force accuracy = 7.7110449e-05
  estimated relative force accuracy = 5.3550243e-06
  using double precision KISS FFT
  3d grid and FFT values/proc = 15625 5832
Generated 0 of 21 mixed pair_coeff terms from geometric mixing rule
Per MPI rank memory allocation (min/avg/max) = 9.773 | 9.773 | 9.773 Mbytes
   Step          Temp          E_pair         E_mol          TotEng         Press     
       361   7734.9445      0.77350556     2.4146008      5.1877464     -333.5235     
Loop time of 4.21e-07 on 1 procs for 0 steps with 3 atoms

clear
OMP_NUM_THREADS environment is not set. Defaulting to 1 thread. (src/comm.cpp:98)
  using 1 OpenMP thread(s) per MPI task
units metal
atom_style full
boundary p p p
read_data /tmp/mustard.1db41283f1a74d1b97c38b9120794fbd
Reading data file ...
  triclinic box = (0 0 0) to (25.319 25.319 25.319) with tilt (0 0 0)
  1 by 1 by 1 MPI processor grid
  reading atoms ...
  3 atoms
  reading velocities ...
  3 velocities
  scanning bonds ...
  1 = max bonds/atom
  reading bonds ...
  1 bonds
Finding 1-2 1-3 1-4 neighbors ...
  special bond factors lj:    0        0        0       
  special bond factors coul:  0        0        0       
     1 = max # of 1-2 neighbors
     0 = max # of 1-3 neighbors
     0 = max # of 1-4 neighbors
     1 = max # of special neighbors
  special bonds CPU = 0.000 seconds
  read_data CPU = 0.001 seconds

change_box all triclinic
Changing box ...
  triclinic box = (0 0 0) to (25.319 25.319 25.319) with tilt (0 0 0)
include ff.lmp
##############################################################################################
#### Atoms' types - mass - charge
##############################################################################################
#@ 7   atom types

variable Ba  equal 1
variable Zr  equal 2
variable  Y  equal 3
variable O1  equal 4
variable O2  equal 5
variable O3  equal 6
variable H1  equal 7

##############################################################################################
#### Atoms' masses
##############################################################################################

mass  ${Ba}   137.327
mass  1   137.327
mass  ${Zr}    91.224
mass  2    91.224
mass  ${Y}     88.910
mass  3     88.910
mass  ${O1}    100000
mass  4    100000
# mass  ${O1}    15.996
mass  ${O2}    100000
mass  5    100000
# mass  ${O2}    15.996
mass  ${O3}    15.996
mass  6    15.996
mass  ${H1}     1.008
mass  7     1.008

##############################################################################################
#### Atoms' charges
##############################################################################################

set type ${Ba}  charge     2.000000
set type 1  charge     2.000000
Setting atom values ...
  0 settings made for charge
set type ${Zr}  charge     4.000000
set type 2  charge     4.000000
Setting atom values ...
  0 settings made for charge
set type ${Y}   charge     3.000000
set type 3   charge     3.000000
Setting atom values ...
  0 settings made for charge
set type ${O1}  charge    -1.308698
set type 4  charge    -1.308698
Setting atom values ...
  1 settings made for charge
set type ${O2}  charge    -2.000000
set type 5  charge    -2.000000
Setting atom values ...
  1 settings made for charge
set type ${O3}  charge    -2.000000
set type 6  charge    -2.000000
Setting atom values ...
  0 settings made for charge
set type ${H1}  charge     0.308698
set type 7  charge     0.308698
Setting atom values ...
  1 settings made for charge

##############################################################################################
#### Covalent bonds parameters
##############################################################################################
#@  1   bond types

bond_style harmonic
#@ O1 - H1
# bond_coeff   1      11.504000      0.985357
bond_coeff   1      23.008000      0.985357

##############################################################################################
# Pair potentials
##############################################################################################

variable rmin  equal  8.
variable rmax  equal 10.

pair_style hybrid/overlay buck/mdf ${rmin} ${rmax} lennard/mdf ${rmin} ${rmax} coul/long ${rmax}
pair_style hybrid/overlay buck/mdf 8 ${rmax} lennard/mdf ${rmin} ${rmax} coul/long ${rmax}
pair_style hybrid/overlay buck/mdf 8 10 lennard/mdf ${rmin} ${rmax} coul/long ${rmax}
pair_style hybrid/overlay buck/mdf 8 10 lennard/mdf 8 ${rmax} coul/long ${rmax}
pair_style hybrid/overlay buck/mdf 8 10 lennard/mdf 8 10 coul/long ${rmax}
pair_style hybrid/overlay buck/mdf 8 10 lennard/mdf 8 10 coul/long 10

##############################################################################################
# Buckingham interaction potentials
pair_coeff  ${Ba}  ${O1}  buck/mdf   688.21662   0.392014   0.000
pair_coeff  1  ${O1}  buck/mdf   688.21662   0.392014   0.000
pair_coeff  1  4  buck/mdf   688.21662   0.392014   0.000
pair_coeff  ${Ba}  ${O2}  buck/mdf   972.19945   0.392014   0.000
pair_coeff  1  ${O2}  buck/mdf   972.19945   0.392014   0.000
pair_coeff  1  5  buck/mdf   972.19945   0.392014   0.000
pair_coeff  ${Ba}  ${O3}  buck/mdf   972.19945   0.392014   0.000
pair_coeff  1  ${O3}  buck/mdf   972.19945   0.392014   0.000
pair_coeff  1  6  buck/mdf   972.19945   0.392014   0.000

pair_coeff  ${Y}   ${O1}  buck/mdf   2972.3808   0.267317   0.000
pair_coeff  3   ${O1}  buck/mdf   2972.3808   0.267317   0.000
pair_coeff  3   4  buck/mdf   2972.3808   0.267317   0.000
pair_coeff  ${Y}   ${O2}  buck/mdf   4121.8373   0.280386   0.000
pair_coeff  3   ${O2}  buck/mdf   4121.8373   0.280386   0.000
pair_coeff  3   5  buck/mdf   4121.8373   0.280386   0.000
pair_coeff  ${Y}   ${O3}  buck/mdf   4121.8373   0.280386   0.000
pair_coeff  3   ${O3}  buck/mdf   4121.8373   0.280386   0.000
pair_coeff  3   6  buck/mdf   4121.8373   0.280386   0.000

pair_coeff  ${Zr}  ${O1}  buck/mdf   2195.8712   0.298760   0.000
pair_coeff  2  ${O1}  buck/mdf   2195.8712   0.298760   0.000
pair_coeff  2  4  buck/mdf   2195.8712   0.298760   0.000
pair_coeff  ${Zr}  ${O2}  buck/mdf   3250.8545   0.298760   0.000
pair_coeff  2  ${O2}  buck/mdf   3250.8545   0.298760   0.000
pair_coeff  2  5  buck/mdf   3250.8545   0.298760   0.000
pair_coeff  ${Zr}  ${O3}  buck/mdf   3250.8545   0.298760   0.000
pair_coeff  2  ${O3}  buck/mdf   3250.8545   0.298760   0.000
pair_coeff  2  6  buck/mdf   3250.8545   0.298760   0.000

pair_coeff  ${O1}  ${O1}  buck/mdf   22764.000   0.149000   0.000
pair_coeff  4  ${O1}  buck/mdf   22764.000   0.149000   0.000
pair_coeff  4  4  buck/mdf   22764.000   0.149000   0.000
pair_coeff  ${O1}  ${O2}  buck/mdf   22764.000   0.149000   0.000
pair_coeff  4  ${O2}  buck/mdf   22764.000   0.149000   0.000
pair_coeff  4  5  buck/mdf   22764.000   0.149000   0.000
pair_coeff  ${O1}  ${O3}  buck/mdf   22764.000   0.149000   0.000
pair_coeff  4  ${O3}  buck/mdf   22764.000   0.149000   0.000
pair_coeff  4  6  buck/mdf   22764.000   0.149000   0.000

pair_coeff  ${O2}  ${O2}  buck/mdf   22764.000   0.149000   0.000
pair_coeff  5  ${O2}  buck/mdf   22764.000   0.149000   0.000
pair_coeff  5  5  buck/mdf   22764.000   0.149000   0.000
pair_coeff  ${O2}  ${O3}  buck/mdf   22764.000   0.149000   0.000
pair_coeff  5  ${O3}  buck/mdf   22764.000   0.149000   0.000
pair_coeff  5  6  buck/mdf   22764.000   0.149000   0.000

pair_coeff  ${O3}  ${O3}  buck/mdf   22764.000   0.149000   0.000
pair_coeff  6  ${O3}  buck/mdf   22764.000   0.149000   0.000
pair_coeff  6  6  buck/mdf   22764.000   0.149000   0.000

##############################################################################################
# 12-6 Lennard-Jones potentials
pair_coeff  ${O1}  ${H1}  lennard/mdf    6.391   0.000
pair_coeff  4  ${H1}  lennard/mdf    6.391   0.000
pair_coeff  4  7  lennard/mdf    6.391   0.000
pair_coeff  ${O2}  ${H1}  lennard/mdf    6.391   0.000
pair_coeff  5  ${H1}  lennard/mdf    6.391   0.000
pair_coeff  5  7  lennard/mdf    6.391   0.000
pair_coeff  ${O3}  ${H1}  lennard/mdf    7.800   0.000
pair_coeff  6  ${H1}  lennard/mdf    7.800   0.000
pair_coeff  6  7  lennard/mdf    7.800   0.000

##############################################################################################
# Coulombic interaction
pair_coeff      *      *  coul/long

#########################################################################################################
# Parameters for reciprocal space electrostatics
#########################################################################################################

kspace_style pppm 1.0e-5
kspace_modify fftbench no
fix md all nve
timestep 0.0002

change_box all x final 0.0 25.319 y final 0.0 25.319 z final 0.0 25.319 xy final 0.0 xz final 0.0 yz final 0.0
Changing box ...
  triclinic box = (0 0 0) to (25.319 25.319 25.319) with tilt (0 0 0)
  triclinic box = (0 0 0) to (25.319 25.319 25.319) with tilt (0 0 0)
  triclinic box = (0 0 0) to (25.319 25.319 25.319) with tilt (0 0 0)
  triclinic box = (0 0 0) to (25.319 25.319 25.319) with tilt (0 0 0)
  triclinic box = (0 0 0) to (25.319 25.319 25.319) with tilt (0 0 0)
  triclinic box = (0 0 0) to (25.319 25.319 25.319) with tilt (0 0 0)
fix ux all store/state 1 xu yu zu
fix ext all external pf/callback 1 1
fix_modify ext energy no
fix_modify ext virial no
compute get_pe all pe

run 0 pre yes post no
PPPM initialization ...
WARNING: System is not charge neutral, net charge = -3 (src/kspace.cpp:327)
  using 12-bit tables for long-range coulomb (src/kspace.cpp:342)
  G vector (1/distance) = 0.28934131
  grid = 18 18 18
  stencil order = 5
  estimated absolute RMS force accuracy = 7.7110449e-05
  estimated relative force accuracy = 5.3550243e-06
  using double precision KISS FFT
  3d grid and FFT values/proc = 15625 5832
Generated 0 of 21 mixed pair_coeff terms from geometric mixing rule
Neighbor list info ...
  update: every = 1 steps, delay = 0 steps, check = yes
  max neighbors/atom: 2000, page size: 100000
  master list distance cutoff = 12
  ghost atom cutoff = 12
  binsize = 6, bins = 5 5 5
  3 neighbor lists, perpetual/occasional/extra = 3 0 0
  (1) pair buck/mdf, perpetual, skip from (3)
      attributes: half, newton on
      pair build: skip
      stencil: none
      bin: none
  (2) pair lennard/mdf, perpetual, skip from (3)
      attributes: half, newton on
      pair build: skip
      stencil: none
      bin: none
  (3) pair coul/long, perpetual
      attributes: half, newton on
      pair build: half/bin/newton/tri
      stencil: half/bin/3d/tri
      bin: standard
Per MPI rank memory allocation (min/avg/max) = 9.773 | 9.773 | 9.773 Mbytes
   Step          Temp          E_pair         E_mol          TotEng         Press     
         0   7778.6736      0.88021474     1.8141911      4.7053508     -270.49305    
Loop time of 1.042e-06 on 1 procs for 0 steps with 3 atoms

run 0 pre yes post no
PPPM initialization ...
  using 12-bit tables for long-range coulomb (src/kspace.cpp:342)
  G vector (1/distance) = 0.28934131
  grid = 18 18 18
  stencil order = 5
  estimated absolute RMS force accuracy = 7.7110449e-05
  estimated relative force accuracy = 5.3550243e-06
  using double precision KISS FFT
  3d grid and FFT values/proc = 15625 5832
Generated 0 of 21 mixed pair_coeff terms from geometric mixing rule
Per MPI rank memory allocation (min/avg/max) = 9.773 | 9.773 | 9.773 Mbytes
   Step          Temp          E_pair         E_mol          TotEng         Press     
         0   7778.6736      0.88021474     1.8141911      4.7053508     -270.49305    
Loop time of 4.61e-07 on 1 procs for 0 steps with 3 atoms

run 1 pre yes post no
PPPM initialization ...
  using 12-bit tables for long-range coulomb (src/kspace.cpp:342)
  G vector (1/distance) = 0.28934131
  grid = 18 18 18
  stencil order = 5
  estimated absolute RMS force accuracy = 7.7110449e-05
  estimated relative force accuracy = 5.3550243e-06
  using double precision KISS FFT
  3d grid and FFT values/proc = 15625 5832
Generated 0 of 21 mixed pair_coeff terms from geometric mixing rule
Per MPI rank memory allocation (min/avg/max) = 9.773 | 9.773 | 9.773 Mbytes
   Step          Temp          E_pair         E_mol          TotEng         Press     
         0   7734.9445      0.88021474     1.8141911      4.6940459     -271.23701    
         1   7675.5876      0.96601715     1.5093318      4.459644      -233.0294     
Loop time of 0.00338927 on 1 procs for 1 steps with 3 atoms

run 1 pre yes post no
PPPM initialization ...
  using 12-bit tables for long-range coulomb (src/kspace.cpp:342)
  G vector (1/distance) = 0.28934131
  grid = 18 18 18
  stencil order = 5
  estimated absolute RMS force accuracy = 7.7110449e-05
  estimated relative force accuracy = 5.3550243e-06
  using double precision KISS FFT
  3d grid and FFT values/proc = 15625 5832
Generated 0 of 21 mixed pair_coeff terms from geometric mixing rule
Per MPI rank memory allocation (min/avg/max) = 9.773 | 9.773 | 9.773 Mbytes
   Step          Temp          E_pair         E_mol          TotEng         Press     
         1   7675.5876      0.96601715     1.5093318      4.459644      -233.0294     
         2   7714.0992      1.06227        1.2364334      4.2929546     -190.96464    
Loop time of 0.00252025 on 1 procs for 1 steps with 3 atoms

run 1 pre yes post no
PPPM initialization ...
  using 12-bit tables for long-range coulomb (src/kspace.cpp:342)
  G vector (1/distance) = 0.28934131
  grid = 18 18 18
  stencil order = 5
  estimated absolute RMS force accuracy = 7.7110449e-05
  estimated relative force accuracy = 5.3550243e-06
  using double precision KISS FFT
  3d grid and FFT values/proc = 15625 5832
Generated 0 of 21 mixed pair_coeff terms from geometric mixing rule
Per MPI rank memory allocation (min/avg/max) = 9.773 | 9.773 | 9.773 Mbytes
   Step          Temp          E_pair         E_mol          TotEng         Press     
         2   7714.0992      1.06227        1.2364334      4.2929546     -190.96464    
         3   7883.3473      1.1680733      0.98866174     4.1947403     -144.33557    
Loop time of 0.00260182 on 1 procs for 1 steps with 3 atoms

run 1 pre yes post no
PPPM initialization ...
  using 12-bit tables for long-range coulomb (src/kspace.cpp:342)
  G vector (1/distance) = 0.28934131
  grid = 18 18 18
  stencil order = 5
  estimated absolute RMS force accuracy = 7.7110449e-05
  estimated relative force accuracy = 5.3550243e-06
  using double precision KISS FFT
  3d grid and FFT values/proc = 15625 5832
Generated 0 of 21 mixed pair_coeff terms from geometric mixing rule
Per MPI rank memory allocation (min/avg/max) = 9.773 | 9.773 | 9.773 Mbytes
   Step          Temp          E_pair         E_mol          TotEng         Press     
         3   7883.3473      1.1680733      0.98866174     4.1947403     -144.33557    
         4   8131.4425      1.2826366      0.76309039     4.1478699     -93.930651    
Loop time of 0.00256911 on 1 procs for 1 steps with 3 atoms

run 1 pre yes post no
PPPM initialization ...
  using 12-bit tables for long-range coulomb (src/kspace.cpp:342)
  G vector (1/distance) = 0.28934131
  grid = 18 18 18
  stencil order = 5
  estimated absolute RMS force accuracy = 7.7110449e-05
  estimated relative force accuracy = 5.3550243e-06
  using double precision KISS FFT
  3d grid and FFT values/proc = 15625 5832
Generated 0 of 21 mixed pair_coeff terms from geometric mixing rule
Per MPI rank memory allocation (min/avg/max) = 9.773 | 9.773 | 9.773 Mbytes
   Step          Temp          E_pair         E_mol          TotEng         Press     
         4   8131.4425      1.2826366      0.76309039     4.1478699     -93.930651    
         5   8372.6756      1.404162       0.56145926     4.1301277     -41.730541    
Loop time of 0.00271896 on 1 procs for 1 steps with 3 atoms

run 1 pre yes post no
PPPM initialization ...
  using 12-bit tables for long-range coulomb (src/kspace.cpp:342)
  G vector (1/distance) = 0.28934131
  grid = 18 18 18
  stencil order = 5
  estimated absolute RMS force accuracy = 7.7110449e-05
  estimated relative force accuracy = 5.3550243e-06
  using double precision KISS FFT
  3d grid and FFT values/proc = 15625 5832
Generated 0 of 21 mixed pair_coeff terms from geometric mixing rule
Per MPI rank memory allocation (min/avg/max) = 9.773 | 9.773 | 9.773 Mbytes
   Step          Temp          E_pair         E_mol          TotEng         Press     
         5   8372.6756      1.404162       0.56145926     4.1301277     -41.730541    
         6   8538.0661      1.5299784      0.38772356     4.1249653      10.037007    
Loop time of 0.00262015 on 1 procs for 1 steps with 3 atoms

run 1 pre yes post no
PPPM initialization ...
  using 12-bit tables for long-range coulomb (src/kspace.cpp:342)
  G vector (1/distance) = 0.28934131
  grid = 18 18 18
  stencil order = 5
  estimated absolute RMS force accuracy = 7.7110449e-05
  estimated relative force accuracy = 5.3550243e-06
  using double precision KISS FFT
  3d grid and FFT values/proc = 15625 5832
Generated 0 of 21 mixed pair_coeff terms from geometric mixing rule
Per MPI rank memory allocation (min/avg/max) = 9.773 | 9.773 | 9.773 Mbytes
   Step          Temp          E_pair         E_mol          TotEng         Press     
         6   8538.0661      1.5299784      0.38772356     4.1249653      10.037007    
         7   8592.0024      1.6572013      0.2455207      4.123929       59.516762    
Loop time of 0.0027664 on 1 procs for 1 steps with 3 atoms

run 1 pre yes post no
PPPM initialization ...
  using 12-bit tables for long-range coulomb (src/kspace.cpp:342)
  G vector (1/distance) = 0.28934131
  grid = 18 18 18
  stencil order = 5
  estimated absolute RMS force accuracy = 7.7110449e-05
  estimated relative force accuracy = 5.3550243e-06
  using double precision KISS FFT
  3d grid and FFT values/proc = 15625 5832
Generated 0 of 21 mixed pair_coeff terms from geometric mixing rule
Per MPI rank memory allocation (min/avg/max) = 9.773 | 9.773 | 9.773 Mbytes
   Step          Temp          E_pair         E_mol          TotEng         Press     
         7   8592.0024      1.6572013      0.2455207      4.123929       59.516762    
         8   8525.1236      1.7832312      0.13680663     4.1239553      105.36948    
Loop time of 0.00271362 on 1 procs for 1 steps with 3 atoms

run 1 pre yes post no
PPPM initialization ...
  using 12-bit tables for long-range coulomb (src/kspace.cpp:342)
  G vector (1/distance) = 0.28934131
  grid = 18 18 18
  stencil order = 5
  estimated absolute RMS force accuracy = 7.7110449e-05
  estimated relative force accuracy = 5.3550243e-06
  using double precision KISS FFT
  3d grid and FFT values/proc = 15625 5832
Generated 0 of 21 mixed pair_coeff terms from geometric mixing rule
Per MPI rank memory allocation (min/avg/max) = 9.773 | 9.773 | 9.773 Mbytes
   Step          Temp          E_pair         E_mol          TotEng         Press     
         8   8525.1236      1.7832312      0.13680663     4.1239553      105.36948    
         9   8342.9833      1.9059599      0.061453598    4.124244       146.70143    
Loop time of 0.00344477 on 1 procs for 1 steps with 3 atoms

run 1 pre yes post no
PPPM initialization ...
  using 12-bit tables for long-range coulomb (src/kspace.cpp:342)
  G vector (1/distance) = 0.28934131
  grid = 18 18 18
  stencil order = 5
  estimated absolute RMS force accuracy = 7.7110449e-05
  estimated relative force accuracy = 5.3550243e-06
  using double precision KISS FFT
  3d grid and FFT values/proc = 15625 5832
Generated 0 of 21 mixed pair_coeff terms from geometric mixing rule
Per MPI rank memory allocation (min/avg/max) = 9.773 | 9.773 | 9.773 Mbytes
   Step          Temp          E_pair         E_mol          TotEng         Press     
         9   8342.9833      1.9059599      0.061453598    4.124244       146.70143    
        10   8059.4003      2.0237931      0.017319766    4.1246314      182.98266    
Loop time of 0.00388961 on 1 procs for 1 steps with 3 atoms

run 1 pre yes post no
PPPM initialization ...
  using 12-bit tables for long-range coulomb (src/kspace.cpp:342)
  G vector (1/distance) = 0.28934131
  grid = 18 18 18
  stencil order = 5
  estimated absolute RMS force accuracy = 7.7110449e-05
  estimated relative force accuracy = 5.3550243e-06
  using double precision KISS FFT
  3d grid and FFT values/proc = 15625 5832
Generated 0 of 21 mixed pair_coeff terms from geometric mixing rule
Per MPI rank memory allocation (min/avg/max) = 9.773 | 9.773 | 9.773 Mbytes
   Step          Temp          E_pair         E_mol          TotEng         Press     
        10   8059.4003      2.0237931      0.017319766    4.1246314      182.98266    
        11   7693.5883      2.1356048      0.00052475422  4.1250783      213.99003    
Loop time of 0.00343553 on 1 procs for 1 steps with 3 atoms

run 1 pre yes post no
PPPM initialization ...
  using 12-bit tables for long-range coulomb (src/kspace.cpp:342)
  G vector (1/distance) = 0.28934131
  grid = 18 18 18
  stencil order = 5
  estimated absolute RMS force accuracy = 7.7110449e-05
  estimated relative force accuracy = 5.3550243e-06
  using double precision KISS FFT
  3d grid and FFT values/proc = 15625 5832
Generated 0 of 21 mixed pair_coeff terms from geometric mixing rule
Per MPI rank memory allocation (min/avg/max) = 9.773 | 9.773 | 9.773 Mbytes
   Step          Temp          E_pair         E_mol          TotEng         Press     
        11   7693.5883      2.1356048      0.00052475422  4.1250783      213.99003    
        12   7268.4941      2.2406597      0.005841167    4.125554       239.75445    
Loop time of 0.00363089 on 1 procs for 1 steps with 3 atoms

run 1 pre yes post no
PPPM initialization ...
  using 12-bit tables for long-range coulomb (src/kspace.cpp:342)
  G vector (1/distance) = 0.28934131
  grid = 18 18 18
  stencil order = 5
  estimated absolute RMS force accuracy = 7.7110449e-05
  estimated relative force accuracy = 5.3550243e-06
  using double precision KISS FFT
  3d grid and FFT values/proc = 15625 5832
Generated 0 of 21 mixed pair_coeff terms from geometric mixing rule
Per MPI rank memory allocation (min/avg/max) = 9.773 | 9.773 | 9.773 Mbytes
   Step          Temp          E_pair         E_mol          TotEng         Press     
        12   7268.4941      2.2406597      0.005841167    4.125554       239.75445    
        13   6809.1934      2.3385501      0.027165314    4.12603        260.5026     
Loop time of 0.00346206 on 1 procs for 1 steps with 3 atoms

run 1 pre yes post no
PPPM initialization ...
  using 12-bit tables for long-range coulomb (src/kspace.cpp:342)
  G vector (1/distance) = 0.28934131
  grid = 18 18 18
  stencil order = 5
  estimated absolute RMS force accuracy = 7.7110449e-05
  estimated relative force accuracy = 5.3550243e-06
  using double precision KISS FFT
  3d grid and FFT values/proc = 15625 5832
Generated 0 of 21 mixed pair_coeff terms from geometric mixing rule
Per MPI rank memory allocation (min/avg/max) = 9.773 | 9.773 | 9.773 Mbytes
   Step          Temp          E_pair         E_mol          TotEng         Press     
        13   6809.1934      2.3385501      0.027165314    4.12603        260.5026     
        14   6341.1418      2.4291271      0.058034059    4.1264749      276.59335    
Loop time of 0.00371906 on 1 procs for 1 steps with 3 atoms

run 1 pre yes post no
PPPM initialization ...
  using 12-bit tables for long-range coulomb (src/kspace.cpp:342)
  G vector (1/distance) = 0.28934131
  grid = 18 18 18
  stencil order = 5
  estimated absolute RMS force accuracy = 7.7110449e-05
  estimated relative force accuracy = 5.3550243e-06
  using double precision KISS FFT
  3d grid and FFT values/proc = 15625 5832
Generated 0 of 21 mixed pair_coeff terms from geometric mixing rule
Per MPI rank memory allocation (min/avg/max) = 9.773 | 9.773 | 9.773 Mbytes
   Step          Temp          E_pair         E_mol          TotEng         Press     
        14   6341.1418      2.4291271      0.058034059    4.1264749      276.59335    
        15   5888.3668      2.5124482      0.092149636    4.1268601      288.45365    
Loop time of 0.00406298 on 1 procs for 1 steps with 3 atoms

run 1 pre yes post no
PPPM initialization ...
  using 12-bit tables for long-range coulomb (src/kspace.cpp:342)
  G vector (1/distance) = 0.28934131
  grid = 18 18 18
  stencil order = 5
  estimated absolute RMS force accuracy = 7.7110449e-05
  estimated relative force accuracy = 5.3550243e-06
  using double precision KISS FFT
  3d grid and FFT values/proc = 15625 5832
Generated 0 of 21 mixed pair_coeff terms from geometric mixing rule
Per MPI rank memory allocation (min/avg/max) = 9.773 | 9.773 | 9.773 Mbytes
   Step          Temp          E_pair         E_mol          TotEng         Press     
        15   5888.3668      2.5124482      0.092149636    4.1268601      288.45365    
        16   5471.7538      2.5887284      0.12387121     4.1271589      296.51827    
Loop time of 0.00116259 on 1 procs for 1 steps with 3 atoms

run 1 pre yes post no
PPPM initialization ...
  using 12-bit tables for long-range coulomb (src/kspace.cpp:342)
  G vector (1/distance) = 0.28934131
  grid = 18 18 18
  stencil order = 5
  estimated absolute RMS force accuracy = 7.7110449e-05
  estimated relative force accuracy = 5.3550243e-06
  using double precision KISS FFT
  3d grid and FFT values/proc = 15625 5832
Generated 0 of 21 mixed pair_coeff terms from geometric mixing rule
Per MPI rank memory allocation (min/avg/max) = 9.773 | 9.773 | 9.773 Mbytes
   Step          Temp          E_pair         E_mol          TotEng         Press     
        16   5471.7538      2.5887284      0.12387121     4.1271589      296.51827    
        17   5107.5853      2.6583061      0.14863293     4.1273535      301.17868    
Loop time of 0.00113299 on 1 procs for 1 steps with 3 atoms

run 1 pre yes post no
PPPM initialization ...
  using 12-bit tables for long-range coulomb (src/kspace.cpp:342)
  G vector (1/distance) = 0.28934131
  grid = 18 18 18
  stencil order = 5
  estimated absolute RMS force accuracy = 7.7110449e-05
  estimated relative force accuracy = 5.3550243e-06
  using double precision KISS FFT
  3d grid and FFT values/proc = 15625 5832
Generated 0 of 21 mixed pair_coeff terms from geometric mixing rule
Per MPI rank memory allocation (min/avg/max) = 9.773 | 9.773 | 9.773 Mbytes
   Step          Temp          E_pair         E_mol          TotEng         Press     
        17   5107.5853      2.6583061      0.14863293     4.1273535      301.17868    
        18   4806.4706      2.7216104      0.16325404     4.1274347      302.74418    
Loop time of 0.00131318 on 1 procs for 1 steps with 3 atoms

run 1 pre yes post no
PPPM initialization ...
  using 12-bit tables for long-range coulomb (src/kspace.cpp:342)
  G vector (1/distance) = 0.28934131
  grid = 18 18 18
  stencil order = 5
  estimated absolute RMS force accuracy = 7.7110449e-05
  estimated relative force accuracy = 5.3550243e-06
  using double precision KISS FFT
  3d grid and FFT values/proc = 15625 5832
Generated 0 of 21 mixed pair_coeff terms from geometric mixing rule
Per MPI rank memory allocation (min/avg/max) = 9.773 | 9.773 | 9.773 Mbytes
   Step          Temp          E_pair         E_mol          TotEng         Press     
        18   4806.4706      2.7216104      0.16325404     4.1274347      302.74418    
        19   4572.7655      2.7791336      0.16611632     4.1274026      301.41853    
Loop time of 0.0011701 on 1 procs for 1 steps with 3 atoms

run 1 pre yes post no
PPPM initialization ...
  using 12-bit tables for long-range coulomb (src/kspace.cpp:342)
  G vector (1/distance) = 0.28934131
  grid = 18 18 18
  stencil order = 5
  estimated absolute RMS force accuracy = 7.7110449e-05
  estimated relative force accuracy = 5.3550243e-06
  using double precision KISS FFT
  3d grid and FFT values/proc = 15625 5832
Generated 0 of 21 mixed pair_coeff terms from geometric mixing rule
Per MPI rank memory allocation (min/avg/max) = 9.773 | 9.773 | 9.773 Mbytes
   Step          Temp          E_pair         E_mol          TotEng         Press     
        19   4572.7655      2.7791336      0.16611632     4.1274026      301.41853    
        20   4404.5322      2.8314079      0.15719733     4.1272662      297.29325    
Loop time of 0.00106342 on 1 procs for 1 steps with 3 atoms

run 1 pre yes post no
PPPM initialization ...
  using 12-bit tables for long-range coulomb (src/kspace.cpp:342)
  G vector (1/distance) = 0.28934131
  grid = 18 18 18
  stencil order = 5
  estimated absolute RMS force accuracy = 7.7110449e-05
  estimated relative force accuracy = 5.3550243e-06
  using double precision KISS FFT
  3d grid and FFT values/proc = 15625 5832
Generated 0 of 21 mixed pair_coeff terms from geometric mixing rule
Per MPI rank memory allocation (min/avg/max) = 9.773 | 9.773 | 9.773 Mbytes
   Step          Temp          E_pair         E_mol          TotEng         Press     
        20   4404.5322      2.8314079      0.15719733     4.1272662      297.29325    
        21   4294.0317      2.8789865      0.13796203     4.1270429      290.35713    
Loop time of 0.00127323 on 1 procs for 1 steps with 3 atoms

run 1 pre yes post no
PPPM initialization ...
  using 12-bit tables for long-range coulomb (src/kspace.cpp:342)
  G vector (1/distance) = 0.28934131
  grid = 18 18 18
  stencil order = 5
  estimated absolute RMS force accuracy = 7.7110449e-05
  estimated relative force accuracy = 5.3550243e-06
  using double precision KISS FFT
  3d grid and FFT values/proc = 15625 5832
Generated 0 of 21 mixed pair_coeff terms from geometric mixing rule
Per MPI rank memory allocation (min/avg/max) = 9.773 | 9.773 | 9.773 Mbytes
   Step          Temp          E_pair         E_mol          TotEng         Press     
        21   4294.0317      2.8789865      0.13796203     4.1270429      290.35713    
        22   4228.6898      2.9224253      0.11112898     4.1267564      280.5202     
Loop time of 0.00105696 on 1 procs for 1 steps with 3 atoms

run 1 pre yes post no
PPPM initialization ...
  using 12-bit tables for long-range coulomb (src/kspace.cpp:342)
  G vector (1/distance) = 0.28934131
  grid = 18 18 18
  stencil order = 5
  estimated absolute RMS force accuracy = 7.7110449e-05
  estimated relative force accuracy = 5.3550243e-06
  using double precision KISS FFT
  3d grid and FFT values/proc = 15625 5832
Generated 0 of 21 mixed pair_coeff terms from geometric mixing rule
Per MPI rank memory allocation (min/avg/max) = 9.773 | 9.773 | 9.773 Mbytes
   Step          Temp          E_pair         E_mol          TotEng         Press     
        22   4228.6898      2.9224253      0.11112898     4.1267564      280.5202     
        23   4192.4337      2.9622671      0.080338169    4.1264344      267.64882    
Loop time of 0.00111962 on 1 procs for 1 steps with 3 atoms

run 1 pre yes post no
PPPM initialization ...
  using 12-bit tables for long-range coulomb (src/kspace.cpp:342)
  G vector (1/distance) = 0.28934131
  grid = 18 18 18
  stencil order = 5
  estimated absolute RMS force accuracy = 7.7110449e-05
  estimated relative force accuracy = 5.3550243e-06
  using double precision KISS FFT
  3d grid and FFT values/proc = 15625 5832
Generated 0 of 21 mixed pair_coeff terms from geometric mixing rule
Per MPI rank memory allocation (min/avg/max) = 9.773 | 9.773 | 9.773 Mbytes
   Step          Temp          E_pair         E_mol          TotEng         Press     
        23   4192.4337      2.9622671      0.080338169    4.1264344      267.64882    
        24   4167.267       2.9990274      0.049755023    4.1261055      251.60786    
Loop time of 0.00108473 on 1 procs for 1 steps with 3 atoms

run 1 pre yes post no
PPPM initialization ...
  using 12-bit tables for long-range coulomb (src/kspace.cpp:342)
  G vector (1/distance) = 0.28934131
  grid = 18 18 18
  stencil order = 5
  estimated absolute RMS force accuracy = 7.7110449e-05
  estimated relative force accuracy = 5.3550243e-06
  using double precision KISS FFT
  3d grid and FFT values/proc = 15625 5832
Generated 0 of 21 mixed pair_coeff terms from geometric mixing rule
Per MPI rank memory allocation (min/avg/max) = 9.773 | 9.773 | 9.773 Mbytes
   Step          Temp          E_pair         E_mol          TotEng         Press     
        24   4167.267       2.9990274      0.049755023    4.1261055      251.60786    
        25   4134.9402      3.0331862      0.023647872    4.1258         232.3056     
Loop time of 0.00113789 on 1 procs for 1 steps with 3 atoms

run 1 pre yes post no
PPPM initialization ...
  using 12-bit tables for long-range coulomb (src/kspace.cpp:342)
  G vector (1/distance) = 0.28934131
  grid = 18 18 18
  stencil order = 5
  estimated absolute RMS force accuracy = 7.7110449e-05
  estimated relative force accuracy = 5.3550243e-06
  using double precision KISS FFT
  3d grid and FFT values/proc = 15625 5832
Generated 0 of 21 mixed pair_coeff terms from geometric mixing rule
Per MPI rank memory allocation (min/avg/max) = 9.773 | 9.773 | 9.773 Mbytes
   Step          Temp          E_pair         E_mol          TotEng         Press     
        25   4134.9402      3.0331862      0.023647872    4.1258         232.3056     
        26   4078.5726      3.0651702      0.0059759324   4.1255399      209.73639    
Loop time of 0.00111148 on 1 procs for 1 steps with 3 atoms

run 1 pre yes post no
PPPM initialization ...
  using 12-bit tables for long-range coulomb (src/kspace.cpp:342)
  G vector (1/distance) = 0.28934131
  grid = 18 18 18
  stencil order = 5
  estimated absolute RMS force accuracy = 7.7110449e-05
  estimated relative force accuracy = 5.3550243e-06
  using double precision KISS FFT
  3d grid and FFT values/proc = 15625 5832
Generated 0 of 21 mixed pair_coeff terms from geometric mixing rule
Per MPI rank memory allocation (min/avg/max) = 9.773 | 9.773 | 9.773 Mbytes
   Step          Temp          E_pair         E_mol          TotEng         Press     
        26   4078.5726      3.0651702      0.0059759324   4.1255399      209.73639    
        27   3984.0983      3.0953555      2.0780414e-05  4.1253466      184.01789    
Loop time of 0.00111698 on 1 procs for 1 steps with 3 atoms

run 1 pre yes post no
PPPM initialization ...
  using 12-bit tables for long-range coulomb (src/kspace.cpp:342)
  G vector (1/distance) = 0.28934131
  grid = 18 18 18
  stencil order = 5
  estimated absolute RMS force accuracy = 7.7110449e-05
  estimated relative force accuracy = 5.3550243e-06
  using double precision KISS FFT
  3d grid and FFT values/proc = 15625 5832
Generated 0 of 21 mixed pair_coeff terms from geometric mixing rule
Per MPI rank memory allocation (min/avg/max) = 9.773 | 9.773 | 9.773 Mbytes
   Step          Temp          E_pair         E_mol          TotEng         Press     
        27   3984.0983      3.0953555      2.0780414e-05  4.1253466      184.01789    
        28   3841.4306      3.1240584      0.0080885697   4.1252347      155.41874    
Loop time of 0.00112199 on 1 procs for 1 steps with 3 atoms

run 1 pre yes post no
PPPM initialization ...
  using 12-bit tables for long-range coulomb (src/kspace.cpp:342)
  G vector (1/distance) = 0.28934131
  grid = 18 18 18
  stencil order = 5
  estimated absolute RMS force accuracy = 7.7110449e-05
  estimated relative force accuracy = 5.3550243e-06
  using double precision KISS FFT
  3d grid and FFT values/proc = 15625 5832
Generated 0 of 21 mixed pair_coeff terms from geometric mixing rule
Per MPI rank memory allocation (min/avg/max) = 9.773 | 9.773 | 9.773 Mbytes
   Step          Temp          E_pair         E_mol          TotEng         Press     
        28   3841.4306      3.1240584      0.0080885697   4.1252347      155.41874    
        29   3645.2666      3.1515318      0.031302922    4.1252101      124.37429    
Loop time of 0.00114822 on 1 procs for 1 steps with 3 atoms

run 1 pre yes post no
PPPM initialization ...
  using 12-bit tables for long-range coulomb (src/kspace.cpp:342)
  G vector (1/distance) = 0.28934131
  grid = 18 18 18
  stencil order = 5
  estimated absolute RMS force accuracy = 7.7110449e-05
  estimated relative force accuracy = 5.3550243e-06
  using double precision KISS FFT
  3d grid and FFT values/proc = 15625 5832
Generated 0 of 21 mixed pair_coeff terms from geometric mixing rule
Per MPI rank memory allocation (min/avg/max) = 9.773 | 9.773 | 9.773 Mbytes
   Step          Temp          E_pair         E_mol          TotEng         Press     
        29   3645.2666      3.1515318      0.031302922    4.1252101      124.37429    
        30   3395.487       3.1779694      0.069500542    4.1252723      91.489594    
Loop time of 0.00150318 on 1 procs for 1 steps with 3 atoms

run 1 pre yes post no
PPPM initialization ...
  using 12-bit tables for long-range coulomb (src/kspace.cpp:342)
  G vector (1/distance) = 0.28934131
  grid = 18 18 18
  stencil order = 5
  estimated absolute RMS force accuracy = 7.7110449e-05
  estimated relative force accuracy = 5.3550243e-06
  using double precision KISS FFT
  3d grid and FFT values/proc = 15625 5832
Generated 0 of 21 mixed pair_coeff terms from geometric mixing rule
Per MPI rank memory allocation (min/avg/max) = 9.773 | 9.773 | 9.773 Mbytes
   Step          Temp          E_pair         E_mol          TotEng         Press     
        30   3395.487       3.1779694      0.069500542    4.1252723      91.489594    
        31   3097.1347      3.2035079      0.12123357     4.1254136      57.528313    
Loop time of 0.00125174 on 1 procs for 1 steps with 3 atoms

run 1 pre yes post no
PPPM initialization ...
  using 12-bit tables for long-range coulomb (src/kspace.cpp:342)
  G vector (1/distance) = 0.28934131
  grid = 18 18 18
  stencil order = 5
  estimated absolute RMS force accuracy = 7.7110449e-05
  estimated relative force accuracy = 5.3550243e-06
  using double precision KISS FFT
  3d grid and FFT values/proc = 15625 5832
Generated 0 of 21 mixed pair_coeff terms from geometric mixing rule
Per MPI rank memory allocation (min/avg/max) = 9.773 | 9.773 | 9.773 Mbytes
   Step          Temp          E_pair         E_mol          TotEng         Press     
        31   3097.1347      3.2035079      0.12123357     4.1254136      57.528313    
        32   2759.988       3.2282336      0.18387492     4.1256214      23.388831    
Loop time of 0.00109572 on 1 procs for 1 steps with 3 atoms

run 1 pre yes post no
PPPM initialization ...
  using 12-bit tables for long-range coulomb (src/kspace.cpp:342)
  G vector (1/distance) = 0.28934131
  grid = 18 18 18
  stencil order = 5
  estimated absolute RMS force accuracy = 7.7110449e-05
  estimated relative force accuracy = 5.3550243e-06
  using double precision KISS FFT
  3d grid and FFT values/proc = 15625 5832
Generated 0 of 21 mixed pair_coeff terms from geometric mixing rule
Per MPI rank memory allocation (min/avg/max) = 9.773 | 9.773 | 9.773 Mbytes
   Step          Temp          E_pair         E_mol          TotEng         Press     
        32   2759.988       3.2282336      0.18387492     4.1256214      23.388831    
        33   2397.7727      3.25219        0.25381583     4.1258787     -9.9313071    
Loop time of 0.00115631 on 1 procs for 1 steps with 3 atoms

run 1 pre yes post no
PPPM initialization ...
  using 12-bit tables for long-range coulomb (src/kspace.cpp:342)
  G vector (1/distance) = 0.28934131
  grid = 18 18 18
  stencil order = 5
  estimated absolute RMS force accuracy = 7.7110449e-05
  estimated relative force accuracy = 5.3550243e-06
  using double precision KISS FFT
  3d grid and FFT values/proc = 15625 5832
Generated 0 of 21 mixed pair_coeff terms from geometric mixing rule
Per MPI rank memory allocation (min/avg/max) = 9.773 | 9.773 | 9.773 Mbytes
   Step          Temp          E_pair         E_mol          TotEng         Press     
        33   2397.7727      3.25219        0.25381583     4.1258787     -9.9313071    
        34   2027.0794      3.2753848      0.32673861     4.1261646     -41.380293    
Loop time of 0.00114439 on 1 procs for 1 steps with 3 atoms

run 1 pre yes post no
PPPM initialization ...
  using 12-bit tables for long-range coulomb (src/kspace.cpp:342)
  G vector (1/distance) = 0.28934131
  grid = 18 18 18
  stencil order = 5
  estimated absolute RMS force accuracy = 7.7110449e-05
  estimated relative force accuracy = 5.3550243e-06
  using double precision KISS FFT
  3d grid and FFT values/proc = 15625 5832
Generated 0 of 21 mixed pair_coeff terms from geometric mixing rule
Per MPI rank memory allocation (min/avg/max) = 9.773 | 9.773 | 9.773 Mbytes
   Step          Temp          E_pair         E_mol          TotEng         Press     
        34   2027.0794      3.2753848      0.32673861     4.1261646     -41.380293    
        35   1666.0718      3.2977975      0.39794303     4.1264539     -69.903127    
Loop time of 0.0012434 on 1 procs for 1 steps with 3 atoms

run 1 pre yes post no
PPPM initialization ...
  using 12-bit tables for long-range coulomb (src/kspace.cpp:342)
  G vector (1/distance) = 0.28934131
  grid = 18 18 18
  stencil order = 5
  estimated absolute RMS force accuracy = 7.7110449e-05
  estimated relative force accuracy = 5.3550243e-06
  using double precision KISS FFT
  3d grid and FFT values/proc = 15625 5832
Generated 0 of 21 mixed pair_coeff terms from geometric mixing rule
Per MPI rank memory allocation (min/avg/max) = 9.773 | 9.773 | 9.773 Mbytes
   Step          Temp          E_pair         E_mol          TotEng         Press     
        35   1666.0718      3.2977975      0.39794303     4.1264539     -69.903127    
        36   1333.0857      3.3193952      0.46270114     4.126726      -94.49531     
Loop time of 0.00109111 on 1 procs for 1 steps with 3 atoms

run 1 pre yes post no
PPPM initialization ...
  using 12-bit tables for long-range coulomb (src/kspace.cpp:342)
  G vector (1/distance) = 0.28934131
  grid = 18 18 18
  stencil order = 5
  estimated absolute RMS force accuracy = 7.7110449e-05
  estimated relative force accuracy = 5.3550243e-06
  using double precision KISS FFT
  3d grid and FFT values/proc = 15625 5832
Generated 0 of 21 mixed pair_coeff terms from geometric mixing rule
Per MPI rank memory allocation (min/avg/max) = 9.773 | 9.773 | 9.773 Mbytes
   Step          Temp          E_pair         E_mol          TotEng         Press     
        36   1333.0857      3.3193952      0.46270114     4.126726      -94.49531     
        37   1045.2215      3.3401313      0.51661421     4.1269564     -114.25646    
Loop time of 0.00114138 on 1 procs for 1 steps with 3 atoms

run 1 pre yes post no
PPPM initialization ...
  using 12-bit tables for long-range coulomb (src/kspace.cpp:342)
  G vector (1/distance) = 0.28934131
  grid = 18 18 18
  stencil order = 5
  estimated absolute RMS force accuracy = 7.7110449e-05
  estimated relative force accuracy = 5.3550243e-06
  using double precision KISS FFT
  3d grid and FFT values/proc = 15625 5832
Generated 0 of 21 mixed pair_coeff terms from geometric mixing rule
Per MPI rank memory allocation (min/avg/max) = 9.773 | 9.773 | 9.773 Mbytes
   Step          Temp          E_pair         E_mol          TotEng         Press     
        37   1045.2215      3.3401313      0.51661421     4.1269564     -114.25646    
        38   817.03452      3.3599637      0.55594536     4.127129      -128.43883    
Loop time of 0.00132933 on 1 procs for 1 steps with 3 atoms

run 1 pre yes post no
PPPM initialization ...
  using 12-bit tables for long-range coulomb (src/kspace.cpp:342)
  G vector (1/distance) = 0.28934131
  grid = 18 18 18
  stencil order = 5
  estimated absolute RMS force accuracy = 7.7110449e-05
  estimated relative force accuracy = 5.3550243e-06
  using double precision KISS FFT
  3d grid and FFT values/proc = 15625 5832
Generated 0 of 21 mixed pair_coeff terms from geometric mixing rule
Per MPI rank memory allocation (min/avg/max) = 9.773 | 9.773 | 9.773 Mbytes
   Step          Temp          E_pair         E_mol          TotEng         Press     
        38   817.03452      3.3599637      0.55594536     4.127129      -128.43883    
        39   659.41652      3.3788531      0.57790386     4.1272295     -136.48903    
Loop time of 0.00124051 on 1 procs for 1 steps with 3 atoms

run 1 pre yes post no
PPPM initialization ...
  using 12-bit tables for long-range coulomb (src/kspace.cpp:342)
  G vector (1/distance) = 0.28934131
  grid = 18 18 18
  stencil order = 5
  estimated absolute RMS force accuracy = 7.7110449e-05
  estimated relative force accuracy = 5.3550243e-06
  using double precision KISS FFT
  3d grid and FFT values/proc = 15625 5832
Generated 0 of 21 mixed pair_coeff terms from geometric mixing rule
Per MPI rank memory allocation (min/avg/max) = 9.773 | 9.773 | 9.773 Mbytes
   Step          Temp          E_pair         E_mol          TotEng         Press     
        39   659.41652      3.3788531      0.57790386     4.1272295     -136.48903    
        40   578.74882      3.39677        0.58086035     4.1272486     -138.07909    
Loop time of 0.00113146 on 1 procs for 1 steps with 3 atoms

run 1 pre yes post no
PPPM initialization ...
  using 12-bit tables for long-range coulomb (src/kspace.cpp:342)
  G vector (1/distance) = 0.28934131
  grid = 18 18 18
  stencil order = 5
  estimated absolute RMS force accuracy = 7.7110449e-05
  estimated relative force accuracy = 5.3550243e-06
  using double precision KISS FFT
  3d grid and FFT values/proc = 15625 5832
Generated 0 of 21 mixed pair_coeff terms from geometric mixing rule
Per MPI rank memory allocation (min/avg/max) = 9.773 | 9.773 | 9.773 Mbytes
   Step          Temp          E_pair         E_mol          TotEng         Press     
        40   578.74882      3.39677        0.58086035     4.1272486     -138.07909    
        41   576.38685      3.4136979      0.56447788     4.1271835     -133.12514    
Loop time of 0.00116821 on 1 procs for 1 steps with 3 atoms

run 1 pre yes post no
PPPM initialization ...
  using 12-bit tables for long-range coulomb (src/kspace.cpp:342)
  G vector (1/distance) = 0.28934131
  grid = 18 18 18
  stencil order = 5
  estimated absolute RMS force accuracy = 7.7110449e-05
  estimated relative force accuracy = 5.3550243e-06
  using double precision KISS FFT
  3d grid and FFT values/proc = 15625 5832
Generated 0 of 21 mixed pair_coeff terms from geometric mixing rule
Per MPI rank memory allocation (min/avg/max) = 9.773 | 9.773 | 9.773 Mbytes
   Step          Temp          E_pair         E_mol          TotEng         Press     
        41   576.38685      3.4136979      0.56447788     4.1271835     -133.12514    
        42   648.51167      3.4296359      0.52974916     4.1270385     -121.79254    
Loop time of 0.00115403 on 1 procs for 1 steps with 3 atoms

run 1 pre yes post no
PPPM initialization ...
  using 12-bit tables for long-range coulomb (src/kspace.cpp:342)
  G vector (1/distance) = 0.28934131
  grid = 18 18 18
  stencil order = 5
  estimated absolute RMS force accuracy = 7.7110449e-05
  estimated relative force accuracy = 5.3550243e-06
  using double precision KISS FFT
  3d grid and FFT values/proc = 15625 5832
Generated 0 of 21 mixed pair_coeff terms from geometric mixing rule
Per MPI rank memory allocation (min/avg/max) = 9.773 | 9.773 | 9.773 Mbytes
   Step          Temp          E_pair         E_mol          TotEng         Press     
        42   648.51167      3.4296359      0.52974916     4.1270385     -121.79254    
        43   786.35808      3.444596       0.47893779     4.1268233     -104.48717    
Loop time of 0.00133673 on 1 procs for 1 steps with 3 atoms

run 1 pre yes post no
PPPM initialization ...
  using 12-bit tables for long-range coulomb (src/kspace.cpp:342)
  G vector (1/distance) = 0.28934131
  grid = 18 18 18
  stencil order = 5
  estimated absolute RMS force accuracy = 7.7110449e-05
  estimated relative force accuracy = 5.3550243e-06
  using double precision KISS FFT
  3d grid and FFT values/proc = 15625 5832
Generated 0 of 21 mixed pair_coeff terms from geometric mixing rule
Per MPI rank memory allocation (min/avg/max) = 9.773 | 9.773 | 9.773 Mbytes
   Step          Temp          E_pair         E_mol          TotEng         Press     
        43   786.35808      3.444596       0.47893779     4.1268233     -104.48717    
        44   976.80197      3.4586012      0.4154274      4.1265517     -81.833231    
Loop time of 0.00106106 on 1 procs for 1 steps with 3 atoms

run 1 pre yes post no
PPPM initialization ...
  using 12-bit tables for long-range coulomb (src/kspace.cpp:342)
  G vector (1/distance) = 0.28934131
  grid = 18 18 18
  stencil order = 5
  estimated absolute RMS force accuracy = 7.7110449e-05
  estimated relative force accuracy = 5.3550243e-06
  using double precision KISS FFT
  3d grid and FFT values/proc = 15625 5832
Generated 0 of 21 mixed pair_coeff terms from geometric mixing rule
Per MPI rank memory allocation (min/avg/max) = 9.773 | 9.773 | 9.773 Mbytes
   Step          Temp          E_pair         E_mol          TotEng         Press     
        44   976.80197      3.4586012      0.4154274      4.1265517     -81.833231    
        45   1203.2641      3.4716849      0.34349        4.1262431     -54.639118    
Loop time of 0.00105456 on 1 procs for 1 steps with 3 atoms

run 1 pre yes post no
PPPM initialization ...
  using 12-bit tables for long-range coulomb (src/kspace.cpp:342)
  G vector (1/distance) = 0.28934131
  grid = 18 18 18
  stencil order = 5
  estimated absolute RMS force accuracy = 7.7110449e-05
  estimated relative force accuracy = 5.3550243e-06
  using double precision KISS FFT
  3d grid and FFT values/proc = 15625 5832
Generated 0 of 21 mixed pair_coeff terms from geometric mixing rule
Per MPI rank memory allocation (min/avg/max) = 9.773 | 9.773 | 9.773 Mbytes
   Step          Temp          E_pair         E_mol          TotEng         Press     
        45   1203.2641      3.4716849      0.34349        4.1262431     -54.639118    
        46   1446.8651      3.483885       0.26798974     4.1259187     -23.853836    
Loop time of 0.00105317 on 1 procs for 1 steps with 3 atoms

run 1 pre yes post no
PPPM initialization ...
  using 12-bit tables for long-range coulomb (src/kspace.cpp:342)
  G vector (1/distance) = 0.28934131
  grid = 18 18 18
  stencil order = 5
  estimated absolute RMS force accuracy = 7.7110449e-05
  estimated relative force accuracy = 5.3550243e-06
  using double precision KISS FFT
  3d grid and FFT values/proc = 15625 5832
Generated 0 of 21 mixed pair_coeff terms from geometric mixing rule
Per MPI rank memory allocation (min/avg/max) = 9.773 | 9.773 | 9.773 Mbytes
   Step          Temp          E_pair         E_mol          TotEng         Press     
        46   1446.8651      3.483885       0.26798974     4.1259187     -23.853836    
        47   1687.7495      3.4952402      0.19404354     4.1256012      9.4835308    
Loop time of 0.00165387 on 1 procs for 1 steps with 3 atoms

run 1 pre yes post no
PPPM initialization ...
  using 12-bit tables for long-range coulomb (src/kspace.cpp:342)
  G vector (1/distance) = 0.28934131
  grid = 18 18 18
  stencil order = 5
  estimated absolute RMS force accuracy = 7.7110449e-05
  estimated relative force accuracy = 5.3550243e-06
  using double precision KISS FFT
  3d grid and FFT values/proc = 15625 5832
Generated 0 of 21 mixed pair_coeff terms from geometric mixing rule
Per MPI rank memory allocation (min/avg/max) = 9.773 | 9.773 | 9.773 Mbytes
   Step          Temp          E_pair         E_mol          TotEng         Press     
        47   1687.7495      3.4952402      0.19404354     4.1256012      9.4835308    
        48   1906.4832      3.5057864      0.12666264     4.1253136      44.297785    
Loop time of 0.00144392 on 1 procs for 1 steps with 3 atoms

run 1 pre yes post no
PPPM initialization ...
  using 12-bit tables for long-range coulomb (src/kspace.cpp:342)
  G vector (1/distance) = 0.28934131
  grid = 18 18 18
  stencil order = 5
  estimated absolute RMS force accuracy = 7.7110449e-05
  estimated relative force accuracy = 5.3550243e-06
  using double precision KISS FFT
  3d grid and FFT values/proc = 15625 5832
Generated 0 of 21 mixed pair_coeff terms from geometric mixing rule
Per MPI rank memory allocation (min/avg/max) = 9.773 | 9.773 | 9.773 Mbytes
   Step          Temp          E_pair         E_mol          TotEng         Press     
        48   1906.4832      3.5057864      0.12666264     4.1253136      44.297785    
        49   2085.4256      3.5155495      0.070400655    4.125075       79.53137     
Loop time of 0.00138667 on 1 procs for 1 steps with 3 atoms

run 1 pre yes post no
PPPM initialization ...
  using 12-bit tables for long-range coulomb (src/kspace.cpp:342)
  G vector (1/distance) = 0.28934131
  grid = 18 18 18
  stencil order = 5
  estimated absolute RMS force accuracy = 7.7110449e-05
  estimated relative force accuracy = 5.3550243e-06
  using double precision KISS FFT
  3d grid and FFT values/proc = 15625 5832
Generated 0 of 21 mixed pair_coeff terms from geometric mixing rule
Per MPI rank memory allocation (min/avg/max) = 9.773 | 9.773 | 9.773 Mbytes
   Step          Temp          E_pair         E_mol          TotEng         Press     
        49   2085.4256      3.5155495      0.070400655    4.125075       79.53137     
        50   2209.9786      3.5245458      0.029033171    4.1249033      114.19511    
Loop time of 0.00119512 on 1 procs for 1 steps with 3 atoms

run 1 pre yes post no
PPPM initialization ...
  using 12-bit tables for long-range coulomb (src/kspace.cpp:342)
  G vector (1/distance) = 0.28934131
  grid = 18 18 18
  stencil order = 5
  estimated absolute RMS force accuracy = 7.7110449e-05
  estimated relative force accuracy = 5.3550243e-06
  using double precision KISS FFT
  3d grid and FFT values/proc = 15625 5832
Generated 0 of 21 mixed pair_coeff terms from geometric mixing rule
Per MPI rank memory allocation (min/avg/max) = 9.773 | 9.773 | 9.773 Mbytes
   Step          Temp          E_pair         E_mol          TotEng         Press     
        50   2209.9786      3.5245458      0.029033171    4.1249033      114.19511    
        51   2269.6234      3.5327752      0.0052916331   4.1248105      147.41188    
Loop time of 0.00156134 on 1 procs for 1 steps with 3 atoms

run 1 pre yes post no
PPPM initialization ...
  using 12-bit tables for long-range coulomb (src/kspace.cpp:342)
  G vector (1/distance) = 0.28934131
  grid = 18 18 18
  stencil order = 5
  estimated absolute RMS force accuracy = 7.7110449e-05
  estimated relative force accuracy = 5.3550243e-06
  using double precision KISS FFT
  3d grid and FFT values/proc = 15625 5832
Generated 0 of 21 mixed pair_coeff terms from geometric mixing rule
Per MPI rank memory allocation (min/avg/max) = 9.773 | 9.773 | 9.773 Mbytes
   Step          Temp          E_pair         E_mol          TotEng         Press     
        51   2269.6234      3.5327752      0.0052916331   4.1248105      147.41188    
        52   2258.6714      3.5402207      0.00067044035  4.1248035      178.4514     
Loop time of 0.00121626 on 1 procs for 1 steps with 3 atoms

run 1 pre yes post no
PPPM initialization ...
  using 12-bit tables for long-range coulomb (src/kspace.cpp:342)
  G vector (1/distance) = 0.28934131
  grid = 18 18 18
  stencil order = 5
  estimated absolute RMS force accuracy = 7.7110449e-05
  estimated relative force accuracy = 5.3550243e-06
  using double precision KISS FFT
  3d grid and FFT values/proc = 15625 5832
Generated 0 of 21 mixed pair_coeff terms from geometric mixing rule
Per MPI rank memory allocation (min/avg/max) = 9.773 | 9.773 | 9.773 Mbytes
   Step          Temp          E_pair         E_mol          TotEng         Press     
        52   2258.6714      3.5402207      0.00067044035  4.1248035      178.4514     
        53   2176.6771      3.5468464      0.015320952    4.1248825      206.75363    
Loop time of 0.00111814 on 1 procs for 1 steps with 3 atoms

run 1 pre yes post no
PPPM initialization ...
  using 12-bit tables for long-range coulomb (src/kspace.cpp:342)
  G vector (1/distance) = 0.28934131
  grid = 18 18 18
  stencil order = 5
  estimated absolute RMS force accuracy = 7.7110449e-05
  estimated relative force accuracy = 5.3550243e-06
  using double precision KISS FFT
  3d grid and FFT values/proc = 15625 5832
Generated 0 of 21 mixed pair_coeff terms from geometric mixing rule
Per MPI rank memory allocation (min/avg/max) = 9.773 | 9.773 | 9.773 Mbytes
   Step          Temp          E_pair         E_mol          TotEng         Press     
        53   2176.6771      3.5468464      0.015320952    4.1248825      206.75363    
        54   2028.4817      3.5525987      0.048039948    4.1250423      231.93992    
Loop time of 0.00112368 on 1 procs for 1 steps with 3 atoms

run 1 pre yes post no
PPPM initialization ...
  using 12-bit tables for long-range coulomb (src/kspace.cpp:342)
  G vector (1/distance) = 0.28934131
  grid = 18 18 18
  stencil order = 5
  estimated absolute RMS force accuracy = 7.7110449e-05
  estimated relative force accuracy = 5.3550243e-06
  using double precision KISS FFT
  3d grid and FFT values/proc = 15625 5832
Generated 0 of 21 mixed pair_coeff terms from geometric mixing rule
Per MPI rank memory allocation (min/avg/max) = 9.773 | 9.773 | 9.773 Mbytes
   Step          Temp          E_pair         E_mol          TotEng         Press     
        54   2028.4817      3.5525987      0.048039948    4.1250423      231.93992    
        55   1823.8858      3.5574075      0.096353439    4.1252724      253.81142    
Loop time of 0.00123132 on 1 procs for 1 steps with 3 atoms

run 1 pre yes post no
PPPM initialization ...
  using 12-bit tables for long-range coulomb (src/kspace.cpp:342)
  G vector (1/distance) = 0.28934131
  grid = 18 18 18
  stencil order = 5
  estimated absolute RMS force accuracy = 7.7110449e-05
  estimated relative force accuracy = 5.3550243e-06
  using double precision KISS FFT
  3d grid and FFT values/proc = 15625 5832
Generated 0 of 21 mixed pair_coeff terms from geometric mixing rule
Per MPI rank memory allocation (min/avg/max) = 9.773 | 9.773 | 9.773 Mbytes
   Step          Temp          E_pair         E_mol          TotEng         Press     
        55   1823.8858      3.5574075      0.096353439    4.1252724      253.81142    
        56   1576.9731      3.5611861      0.15669004     4.1255557      272.33549    
Loop time of 0.00114483 on 1 procs for 1 steps with 3 atoms

run 1 pre yes post no
PPPM initialization ...
  using 12-bit tables for long-range coulomb (src/kspace.cpp:342)
  G vector (1/distance) = 0.28934131
  grid = 18 18 18
  stencil order = 5
  estimated absolute RMS force accuracy = 7.7110449e-05
  estimated relative force accuracy = 5.3550243e-06
  using double precision KISS FFT
  3d grid and FFT values/proc = 15625 5832
Generated 0 of 21 mixed pair_coeff terms from geometric mixing rule
Per MPI rank memory allocation (min/avg/max) = 9.773 | 9.773 | 9.773 Mbytes
   Step          Temp          E_pair         E_mol          TotEng         Press     
        56   1576.9731      3.5611861      0.15669004     4.1255557      272.33549    
        57   1305.1325      3.5638389      0.22463184     4.125874       287.62152    
Loop time of 0.0010685 on 1 procs for 1 steps with 3 atoms

run 1 pre yes post no
PPPM initialization ...
  using 12-bit tables for long-range coulomb (src/kspace.cpp:342)
  G vector (1/distance) = 0.28934131
  grid = 18 18 18
  stencil order = 5
  estimated absolute RMS force accuracy = 7.7110449e-05
  estimated relative force accuracy = 5.3550243e-06
  using double precision KISS FFT
  3d grid and FFT values/proc = 15625 5832
Generated 0 of 21 mixed pair_coeff terms from geometric mixing rule
Per MPI rank memory allocation (min/avg/max) = 9.773 | 9.773 | 9.773 Mbytes
   Step          Temp          E_pair         E_mol          TotEng         Press     
        57   1305.1325      3.5638389      0.22463184     4.125874       287.62152    
        58   1027.846       3.5652603      0.29522536     4.1262047      299.8882     
Loop time of 0.00110844 on 1 procs for 1 steps with 3 atoms

run 1 pre yes post no
PPPM initialization ...
  using 12-bit tables for long-range coulomb (src/kspace.cpp:342)
  G vector (1/distance) = 0.28934131
  grid = 18 18 18
  stencil order = 5
  estimated absolute RMS force accuracy = 7.7110449e-05
  estimated relative force accuracy = 5.3550243e-06
  using double precision KISS FFT
  3d grid and FFT values/proc = 15625 5832
Generated 0 of 21 mixed pair_coeff terms from geometric mixing rule
Per MPI rank memory allocation (min/avg/max) = 9.773 | 9.773 | 9.773 Mbytes
   Step          Temp          E_pair         E_mol          TotEng         Press     
        58   1027.846       3.5652603      0.29522536     4.1262047      299.8882     
        59   765.32716      3.5653404      0.36333095     4.1265239      309.42506    
Loop time of 0.0011338 on 1 procs for 1 steps with 3 atoms

run 1 pre yes post no
PPPM initialization ...
  using 12-bit tables for long-range coulomb (src/kspace.cpp:342)
  G vector (1/distance) = 0.28934131
  grid = 18 18 18
  stencil order = 5
  estimated absolute RMS force accuracy = 7.7110449e-05
  estimated relative force accuracy = 5.3550243e-06
  using double precision KISS FFT
  3d grid and FFT values/proc = 15625 5832
Generated 0 of 21 mixed pair_coeff terms from geometric mixing rule
Per MPI rank memory allocation (min/avg/max) = 9.773 | 9.773 | 9.773 Mbytes
   Step          Temp          E_pair         E_mol          TotEng         Press     
        59   765.32716      3.5653404      0.36333095     4.1265239      309.42506    
        60   537.10406      3.5639703      0.42398653     4.1268092      316.55147    
Loop time of 0.00109695 on 1 procs for 1 steps with 3 atoms

run 1 pre yes post no
PPPM initialization ...
  using 12-bit tables for long-range coulomb (src/kspace.cpp:342)
  G vector (1/distance) = 0.28934131
  grid = 18 18 18
  stencil order = 5
  estimated absolute RMS force accuracy = 7.7110449e-05
  estimated relative force accuracy = 5.3550243e-06
  using double precision KISS FFT
  3d grid and FFT values/proc = 15625 5832
Generated 0 of 21 mixed pair_coeff terms from geometric mixing rule
Per MPI rank memory allocation (min/avg/max) = 9.773 | 9.773 | 9.773 Mbytes
   Step          Temp          E_pair         E_mol          TotEng         Press     
        60   537.10406      3.5639703      0.42398653     4.1268092      316.55147    
        61   360.64426      3.5610476      0.47276028     4.1270417      321.57611    
Loop time of 0.00110041 on 1 procs for 1 steps with 3 atoms

run 1 pre yes post no
PPPM initialization ...
  using 12-bit tables for long-range coulomb (src/kspace.cpp:342)
  G vector (1/distance) = 0.28934131
  grid = 18 18 18
  stencil order = 5
  estimated absolute RMS force accuracy = 7.7110449e-05
  estimated relative force accuracy = 5.3550243e-06
  using double precision KISS FFT
  3d grid and FFT values/proc = 15625 5832
Generated 0 of 21 mixed pair_coeff terms from geometric mixing rule
Per MPI rank memory allocation (min/avg/max) = 9.773 | 9.773 | 9.773 Mbytes
   Step          Temp          E_pair         E_mol          TotEng         Press     
        61   360.64426      3.5610476      0.47276028     4.1270417      321.57611    
        62   250.11794      3.5564758      0.50606785     4.1272042      324.75988    
Loop time of 0.00146186 on 1 procs for 1 steps with 3 atoms

run 1 pre yes post no
PPPM initialization ...
  using 12-bit tables for long-range coulomb (src/kspace.cpp:342)
  G vector (1/distance) = 0.28934131
  grid = 18 18 18
  stencil order = 5
  estimated absolute RMS force accuracy = 7.7110449e-05
  estimated relative force accuracy = 5.3550243e-06
  using double precision KISS FFT
  3d grid and FFT values/proc = 15625 5832
Generated 0 of 21 mixed pair_coeff terms from geometric mixing rule
Per MPI rank memory allocation (min/avg/max) = 9.773 | 9.773 | 9.773 Mbytes
   Step          Temp          E_pair         E_mol          TotEng         Press     
        62   250.11794      3.5564758      0.50606785     4.1272042      324.75988    
        63   215.38464      3.5501707      0.52143194     4.1272839      326.28575    
Loop time of 0.0014375 on 1 procs for 1 steps with 3 atoms

run 1 pre yes post no
PPPM initialization ...
  using 12-bit tables for long-range coulomb (src/kspace.cpp:342)
  G vector (1/distance) = 0.28934131
  grid = 18 18 18
  stencil order = 5
  estimated absolute RMS force accuracy = 7.7110449e-05
  estimated relative force accuracy = 5.3550243e-06
  using double precision KISS FFT
  3d grid and FFT values/proc = 15625 5832
Generated 0 of 21 mixed pair_coeff terms from geometric mixing rule
Per MPI rank memory allocation (min/avg/max) = 9.773 | 9.773 | 9.773 Mbytes
   Step          Temp          E_pair         E_mol          TotEng         Press     
        63   215.38464      3.5501707      0.52143194     4.1272839      326.28575    
        64   261.27521      3.5420655      0.51766572     4.1272762      326.2373     
Loop time of 0.00149663 on 1 procs for 1 steps with 3 atoms

run 1 pre yes post no
PPPM initialization ...
  using 12-bit tables for long-range coulomb (src/kspace.cpp:342)
  G vector (1/distance) = 0.28934131
  grid = 18 18 18
  stencil order = 5
  estimated absolute RMS force accuracy = 7.7110449e-05
  estimated relative force accuracy = 5.3550243e-06
  using double precision KISS FFT
  3d grid and FFT values/proc = 15625 5832
Generated 0 of 21 mixed pair_coeff terms from geometric mixing rule
Per MPI rank memory allocation (min/avg/max) = 9.773 | 9.773 | 9.773 Mbytes
   Step          Temp          E_pair         E_mol          TotEng         Press     
        64   261.27521      3.5420655      0.51766572     4.1272762      326.2373     
        65   387.2205       3.5321085      0.49496697     4.1271798      324.58773    
Loop time of 0.00121805 on 1 procs for 1 steps with 3 atoms

run 1 pre yes post no
PPPM initialization ...
  using 12-bit tables for long-range coulomb (src/kspace.cpp:342)
  G vector (1/distance) = 0.28934131
  grid = 18 18 18
  stencil order = 5
  estimated absolute RMS force accuracy = 7.7110449e-05
  estimated relative force accuracy = 5.3550243e-06
  using double precision KISS FFT
  3d grid and FFT values/proc = 15625 5832
Generated 0 of 21 mixed pair_coeff terms from geometric mixing rule
Per MPI rank memory allocation (min/avg/max) = 9.773 | 9.773 | 9.773 Mbytes
   Step          Temp          E_pair         E_mol          TotEng         Press     
        65   387.2205       3.5321085      0.49496697     4.1271798      324.58773    
        66   587.25523      3.5202687      0.45491553     4.1270016      321.20055    
Loop time of 0.00116962 on 1 procs for 1 steps with 3 atoms

run 1 pre yes post no
PPPM initialization ...
  using 12-bit tables for long-range coulomb (src/kspace.cpp:342)
  G vector (1/distance) = 0.28934131
  grid = 18 18 18
  stencil order = 5
  estimated absolute RMS force accuracy = 7.7110449e-05
  estimated relative force accuracy = 5.3550243e-06
  using double precision KISS FFT
  3d grid and FFT values/proc = 15625 5832
Generated 0 of 21 mixed pair_coeff terms from geometric mixing rule
Per MPI rank memory allocation (min/avg/max) = 9.773 | 9.773 | 9.773 Mbytes
   Step          Temp          E_pair         E_mol          TotEng         Press     
        66   587.25523      3.5202687      0.45491553     4.1270016      321.20055    
        67   850.39985      3.5065341      0.40037339     4.1267532      315.84172    
Loop time of 0.00109979 on 1 procs for 1 steps with 3 atoms

run 1 pre yes post no
PPPM initialization ...
  using 12-bit tables for long-range coulomb (src/kspace.cpp:342)
  G vector (1/distance) = 0.28934131
  grid = 18 18 18
  stencil order = 5
  estimated absolute RMS force accuracy = 7.7110449e-05
  estimated relative force accuracy = 5.3550243e-06
  using double precision KISS FFT
  3d grid and FFT values/proc = 15625 5832
Generated 0 of 21 mixed pair_coeff terms from geometric mixing rule
Per MPI rank memory allocation (min/avg/max) = 9.773 | 9.773 | 9.773 Mbytes
   Step          Temp          E_pair         E_mol          TotEng         Press     
        67   850.39985      3.5065341      0.40037339     4.1267532      315.84172    
        68   1161.3969      3.4909128      0.33529359     4.126451       308.20254    
Loop time of 0.00117478 on 1 procs for 1 steps with 3 atoms

run 1 pre yes post no
PPPM initialization ...
  using 12-bit tables for long-range coulomb (src/kspace.cpp:342)
  G vector (1/distance) = 0.28934131
  grid = 18 18 18
  stencil order = 5
  estimated absolute RMS force accuracy = 7.7110449e-05
  estimated relative force accuracy = 5.3550243e-06
  using double precision KISS FFT
  3d grid and FFT values/proc = 15625 5832
Generated 0 of 21 mixed pair_coeff terms from geometric mixing rule
Per MPI rank memory allocation (min/avg/max) = 9.773 | 9.773 | 9.773 Mbytes
   Step          Temp          E_pair         E_mol          TotEng         Press     
        68   1161.3969      3.4909128      0.33529359     4.126451       308.20254    
        69   1501.7536      3.4734324      0.26445045     4.1261167      297.93171    
Loop time of 0.0015702 on 1 procs for 1 steps with 3 atoms

run 1 pre yes post no
PPPM initialization ...
  using 12-bit tables for long-range coulomb (src/kspace.cpp:342)
  G vector (1/distance) = 0.28934131
  grid = 18 18 18
  stencil order = 5
  estimated absolute RMS force accuracy = 7.7110449e-05
  estimated relative force accuracy = 5.3550243e-06
  using double precision KISS FFT
  3d grid and FFT values/proc = 15625 5832
Generated 0 of 21 mixed pair_coeff terms from geometric mixing rule
Per MPI rank memory allocation (min/avg/max) = 9.773 | 9.773 | 9.773 Mbytes
   Step          Temp          E_pair         E_mol          TotEng         Press     
        69   1501.7536      3.4734324      0.26445045     4.1261167      297.93171    
        70   1851.0196      3.4541374      0.19310947     4.125773       284.67395    
Loop time of 0.00118702 on 1 procs for 1 steps with 3 atoms

run 1 pre yes post no
PPPM initialization ...
  using 12-bit tables for long-range coulomb (src/kspace.cpp:342)
  G vector (1/distance) = 0.28934131
  grid = 18 18 18
  stencil order = 5
  estimated absolute RMS force accuracy = 7.7110449e-05
  estimated relative force accuracy = 5.3550243e-06
  using double precision KISS FFT
  3d grid and FFT values/proc = 15625 5832
Generated 0 of 21 mixed pair_coeff terms from geometric mixing rule
Per MPI rank memory allocation (min/avg/max) = 9.773 | 9.773 | 9.773 Mbytes
   Step          Temp          E_pair         E_mol          TotEng         Press     
        70   1851.0196      3.4541374      0.19310947     4.125773       284.67395    
        71   2188.2117      3.4330871      0.12665974     4.125444       268.11259    
Loop time of 0.0013284 on 1 procs for 1 steps with 3 atoms

run 1 pre yes post no
PPPM initialization ...
  using 12-bit tables for long-range coulomb (src/kspace.cpp:342)
  G vector (1/distance) = 0.28934131
  grid = 18 18 18
  stencil order = 5
  estimated absolute RMS force accuracy = 7.7110449e-05
  estimated relative force accuracy = 5.3550243e-06
  using double precision KISS FFT
  3d grid and FFT values/proc = 15625 5832
Generated 0 of 21 mixed pair_coeff terms from geometric mixing rule
Per MPI rank memory allocation (min/avg/max) = 9.773 | 9.773 | 9.773 Mbytes
   Step          Temp          E_pair         E_mol          TotEng         Press     
        71   2188.2117      3.4330871      0.12665974     4.125444       268.11259    
        72   2493.2867      3.410353       0.070234597    4.1251528      248.01257    
Loop time of 0.00129297 on 1 procs for 1 steps with 3 atoms

run 1 pre yes post no
PPPM initialization ...
  using 12-bit tables for long-range coulomb (src/kspace.cpp:342)
  G vector (1/distance) = 0.28934131
  grid = 18 18 18
  stencil order = 5
  estimated absolute RMS force accuracy = 7.7110449e-05
  estimated relative force accuracy = 5.3550243e-06
  using double precision KISS FFT
  3d grid and FFT values/proc = 15625 5832
Generated 0 of 21 mixed pair_coeff terms from geometric mixing rule
Per MPI rank memory allocation (min/avg/max) = 9.773 | 9.773 | 9.773 Mbytes
   Step          Temp          E_pair         E_mol          TotEng         Press     
        72   2493.2867      3.410353       0.070234597    4.1251528      248.01257    
        73   2748.5572      3.3860152      0.028347439    4.1249205      224.26056    
Loop time of 0.00126567 on 1 procs for 1 steps with 3 atoms

run 1 pre yes post no
PPPM initialization ...
  using 12-bit tables for long-range coulomb (src/kspace.cpp:342)
  G vector (1/distance) = 0.28934131
  grid = 18 18 18
  stencil order = 5
  estimated absolute RMS force accuracy = 7.7110449e-05
  estimated relative force accuracy = 5.3550243e-06
  using double precision KISS FFT
  3d grid and FFT values/proc = 15625 5832
Generated 0 of 21 mixed pair_coeff terms from geometric mixing rule
Per MPI rank memory allocation (min/avg/max) = 9.773 | 9.773 | 9.773 Mbytes
   Step          Temp          E_pair         E_mol          TotEng         Press     
        73   2748.5572      3.3860152      0.028347439    4.1249205      224.26056    
        74   2939.9492      3.3601582      0.0045685549   4.1247633      196.89879    
Loop time of 0.00140716 on 1 procs for 1 steps with 3 atoms

run 1 pre yes post no
PPPM initialization ...
  using 12-bit tables for long-range coulomb (src/kspace.cpp:342)
  G vector (1/distance) = 0.28934131
  grid = 18 18 18
  stencil order = 5
  estimated absolute RMS force accuracy = 7.7110449e-05
  estimated relative force accuracy = 5.3550243e-06
  using double precision KISS FFT
  3d grid and FFT values/proc = 15625 5832
Generated 0 of 21 mixed pair_coeff terms from geometric mixing rule
Per MPI rank memory allocation (min/avg/max) = 9.773 | 9.773 | 9.773 Mbytes
   Step          Temp          E_pair         E_mol          TotEng         Press     
        74   2939.9492      3.3601582      0.0045685549   4.1247633      196.89879    
        75   3058.0137      3.3328673      0.0012663089   4.1246922      166.14997    
Loop time of 0.00134425 on 1 procs for 1 steps with 3 atoms

run 1 pre yes post no
PPPM initialization ...
  using 12-bit tables for long-range coulomb (src/kspace.cpp:342)
  G vector (1/distance) = 0.28934131
  grid = 18 18 18
  stencil order = 5
  estimated absolute RMS force accuracy = 7.7110449e-05
  estimated relative force accuracy = 5.3550243e-06
  using double precision KISS FFT
  3d grid and FFT values/proc = 15625 5832
Generated 0 of 21 mixed pair_coeff terms from geometric mixing rule
Per MPI rank memory allocation (min/avg/max) = 9.773 | 9.773 | 9.773 Mbytes
   Step          Temp          E_pair         E_mol          TotEng         Press     
        75   3058.0137      3.3328673      0.0012663089   4.1246922      166.14997    
        76   3098.6152      3.3042279      0.01943131     4.1247141      132.4308     
Loop time of 0.00131466 on 1 procs for 1 steps with 3 atoms

run 1 pre yes post no
PPPM initialization ...
  using 12-bit tables for long-range coulomb (src/kspace.cpp:342)
  G vector (1/distance) = 0.28934131
  grid = 18 18 18
  stencil order = 5
  estimated absolute RMS force accuracy = 7.7110449e-05
  estimated relative force accuracy = 5.3550243e-06
  using double precision KISS FFT
  3d grid and FFT values/proc = 15625 5832
Generated 0 of 21 mixed pair_coeff terms from geometric mixing rule
Per MPI rank memory allocation (min/avg/max) = 9.773 | 9.773 | 9.773 Mbytes
   Step          Temp          E_pair         E_mol          TotEng         Press     
        76   3098.6152      3.3042279      0.01943131     4.1247141      132.4308     
        77   3063.2505      3.2743166      0.058596429    4.1248254      96.352262    
Loop time of 0.00111262 on 1 procs for 1 steps with 3 atoms

run 1 pre yes post no
PPPM initialization ...
  using 12-bit tables for long-range coulomb (src/kspace.cpp:342)
  G vector (1/distance) = 0.28934131
  grid = 18 18 18
  stencil order = 5
  estimated absolute RMS force accuracy = 7.7110449e-05
  estimated relative force accuracy = 5.3550243e-06
  using double precision KISS FFT
  3d grid and FFT values/proc = 15625 5832
Generated 0 of 21 mixed pair_coeff terms from geometric mixing rule
Per MPI rank memory allocation (min/avg/max) = 9.773 | 9.773 | 9.773 Mbytes
   Step          Temp          E_pair         E_mol          TotEng         Press     
        77   3063.2505      3.2743166      0.058596429    4.1248254      96.352262    
        78   2958.9708      3.2432071      0.11685867     4.1250198      58.707041    
Loop time of 0.00109774 on 1 procs for 1 steps with 3 atoms

run 1 pre yes post no
PPPM initialization ...
  using 12-bit tables for long-range coulomb (src/kspace.cpp:342)
  G vector (1/distance) = 0.28934131
  grid = 18 18 18
  stencil order = 5
  estimated absolute RMS force accuracy = 7.7110449e-05
  estimated relative force accuracy = 5.3550243e-06
  using double precision KISS FFT
  3d grid and FFT values/proc = 15625 5832
Generated 0 of 21 mixed pair_coeff terms from geometric mixing rule
Per MPI rank memory allocation (min/avg/max) = 9.773 | 9.773 | 9.773 Mbytes
   Step          Temp          E_pair         E_mol          TotEng         Press     
        78   2958.9708      3.2432071      0.11685867     4.1250198      58.707041    
        79   2797.9132      3.2109653      0.19100165     4.1252842      20.443218    
Loop time of 0.00112535 on 1 procs for 1 steps with 3 atoms

run 1 pre yes post no
PPPM initialization ...
  using 12-bit tables for long-range coulomb (src/kspace.cpp:342)
  G vector (1/distance) = 0.28934131
  grid = 18 18 18
  stencil order = 5
  estimated absolute RMS force accuracy = 7.7110449e-05
  estimated relative force accuracy = 5.3550243e-06
  using double precision KISS FFT
  3d grid and FFT values/proc = 15625 5832
Generated 0 of 21 mixed pair_coeff terms from geometric mixing rule
Per MPI rank memory allocation (min/avg/max) = 9.773 | 9.773 | 9.773 Mbytes
   Step          Temp          E_pair         E_mol          TotEng         Press     
        79   2797.9132      3.2109653      0.19100165     4.1252842      20.443218    
        80   2596.4722      3.1776493      0.27671011     4.1256002     -17.373697    
Loop time of 0.00114811 on 1 procs for 1 steps with 3 atoms

run 1 pre yes post no
PPPM initialization ...
  using 12-bit tables for long-range coulomb (src/kspace.cpp:342)
  G vector (1/distance) = 0.28934131
  grid = 18 18 18
  stencil order = 5
  estimated absolute RMS force accuracy = 7.7110449e-05
  estimated relative force accuracy = 5.3550243e-06
  using double precision KISS FFT
  3d grid and FFT values/proc = 15625 5832
Generated 0 of 21 mixed pair_coeff terms from geometric mixing rule
Per MPI rank memory allocation (min/avg/max) = 9.773 | 9.773 | 9.773 Mbytes
   Step          Temp          E_pair         E_mol          TotEng         Press     
        80   2596.4722      3.1776493      0.27671011     4.1256002     -17.373697    
        81   2374.1711      3.1433128      0.36886152     4.1259458     -53.608406    
Loop time of 0.00118628 on 1 procs for 1 steps with 3 atoms

run 1 pre yes post no
PPPM initialization ...
  using 12-bit tables for long-range coulomb (src/kspace.cpp:342)
  G vector (1/distance) = 0.28934131
  grid = 18 18 18
  stencil order = 5
  estimated absolute RMS force accuracy = 7.7110449e-05
  estimated relative force accuracy = 5.3550243e-06
  using double precision KISS FFT
  3d grid and FFT values/proc = 15625 5832
Generated 0 of 21 mixed pair_coeff terms from geometric mixing rule
Per MPI rank memory allocation (min/avg/max) = 9.773 | 9.773 | 9.773 Mbytes
   Step          Temp          E_pair         E_mol          TotEng         Press     
        81   2374.1711      3.1433128      0.36886152     4.1259458     -53.608406    
        82   2152.3119      3.1080065      0.46187387     4.1262967     -87.110357    
Loop time of 0.00123207 on 1 procs for 1 steps with 3 atoms

run 1 pre yes post no
PPPM initialization ...
  using 12-bit tables for long-range coulomb (src/kspace.cpp:342)
  G vector (1/distance) = 0.28934131
  grid = 18 18 18
  stencil order = 5
  estimated absolute RMS force accuracy = 7.7110449e-05
  estimated relative force accuracy = 5.3550243e-06
  using double precision KISS FFT
  3d grid and FFT values/proc = 15625 5832
Generated 0 of 21 mixed pair_coeff terms from geometric mixing rule
Per MPI rank memory allocation (min/avg/max) = 9.773 | 9.773 | 9.773 Mbytes
   Step          Temp          E_pair         E_mol          TotEng         Press     
        82   2152.3119      3.1080065      0.46187387     4.1262967     -87.110357    
        83   1952.5004      3.0717833      0.55008515     4.1266295     -116.77162    
Loop time of 0.00167698 on 1 procs for 1 steps with 3 atoms

run 1 pre yes post no
PPPM initialization ...
  using 12-bit tables for long-range coulomb (src/kspace.cpp:342)
  G vector (1/distance) = 0.28934131
  grid = 18 18 18
  stencil order = 5
  estimated absolute RMS force accuracy = 7.7110449e-05
  estimated relative force accuracy = 5.3550243e-06
  using double precision KISS FFT
  3d grid and FFT values/proc = 15625 5832
Generated 0 of 21 mixed pair_coeff terms from geometric mixing rule
Per MPI rank memory allocation (min/avg/max) = 9.773 | 9.773 | 9.773 Mbytes
   Step          Temp          E_pair         E_mol          TotEng         Press     
        83   1952.5004      3.0717833      0.55008515     4.1266295     -116.77162    
        84   1795.1523      3.0347001      0.62813716     4.1269206     -141.58464    
Loop time of 0.00129587 on 1 procs for 1 steps with 3 atoms

run 1 pre yes post no
PPPM initialization ...
  using 12-bit tables for long-range coulomb (src/kspace.cpp:342)
  G vector (1/distance) = 0.28934131
  grid = 18 18 18
  stencil order = 5
  estimated absolute RMS force accuracy = 7.7110449e-05
  estimated relative force accuracy = 5.3550243e-06
  using double precision KISS FFT
  3d grid and FFT values/proc = 15625 5832
Generated 0 of 21 mixed pair_coeff terms from geometric mixing rule
Per MPI rank memory allocation (min/avg/max) = 9.773 | 9.773 | 9.773 Mbytes
   Step          Temp          E_pair         E_mol          TotEng         Press     
        84   1795.1523      3.0347001      0.62813716     4.1269206     -141.58464    
        85   1698.0874      2.9968242      0.69133647     4.1271508     -160.69571    
Loop time of 0.00112987 on 1 procs for 1 steps with 3 atoms

run 1 pre yes post no
PPPM initialization ...
  using 12-bit tables for long-range coulomb (src/kspace.cpp:342)
  G vector (1/distance) = 0.28934131
  grid = 18 18 18
  stencil order = 5
  estimated absolute RMS force accuracy = 7.7110449e-05
  estimated relative force accuracy = 5.3550243e-06
  using double precision KISS FFT
  3d grid and FFT values/proc = 15625 5832
Generated 0 of 21 mixed pair_coeff terms from geometric mixing rule
Per MPI rank memory allocation (min/avg/max) = 9.773 | 9.773 | 9.773 Mbytes
   Step          Temp          E_pair         E_mol          TotEng         Press     
        85   1698.0874      2.9968242      0.69133647     4.1271508     -160.69571    
        86   1675.3141      2.9582349      0.73596638     4.1273039     -173.4512     
Loop time of 0.00110234 on 1 procs for 1 steps with 3 atoms

run 1 pre yes post no
PPPM initialization ...
  using 12-bit tables for long-range coulomb (src/kspace.cpp:342)
  G vector (1/distance) = 0.28934131
  grid = 18 18 18
  stencil order = 5
  estimated absolute RMS force accuracy = 7.7110449e-05
  estimated relative force accuracy = 5.3550243e-06
  using double precision KISS FFT
  3d grid and FFT values/proc = 15625 5832
Generated 0 of 21 mixed pair_coeff terms from geometric mixing rule
Per MPI rank memory allocation (min/avg/max) = 9.773 | 9.773 | 9.773 Mbytes
   Step          Temp          E_pair         E_mol          TotEng         Press     
        86   1675.3141      2.9582349      0.73596638     4.1273039     -173.4512     
        87   1736.0915      2.9190285      0.75952765     4.127371      -179.43279    
Loop time of 0.00111425 on 1 procs for 1 steps with 3 atoms

run 1 pre yes post no
PPPM initialization ...
  using 12-bit tables for long-range coulomb (src/kspace.cpp:342)
  G vector (1/distance) = 0.28934131
  grid = 18 18 18
  stencil order = 5
  estimated absolute RMS force accuracy = 7.7110449e-05
  estimated relative force accuracy = 5.3550243e-06
  using double precision KISS FFT
  3d grid and FFT values/proc = 15625 5832
Generated 0 of 21 mixed pair_coeff terms from geometric mixing rule
Per MPI rank memory allocation (min/avg/max) = 9.773 | 9.773 | 9.773 Mbytes
   Step          Temp          E_pair         E_mol          TotEng         Press     
        87   1736.0915      2.9190285      0.75952765     4.127371      -179.43279    
        88   1884.3399      2.8793187      0.76089049     4.1273493     -178.4801     
Loop time of 0.0011129 on 1 procs for 1 steps with 3 atoms

run 1 pre yes post no
PPPM initialization ...
  using 12-bit tables for long-range coulomb (src/kspace.cpp:342)
  G vector (1/distance) = 0.28934131
  grid = 18 18 18
  stencil order = 5
  estimated absolute RMS force accuracy = 7.7110449e-05
  estimated relative force accuracy = 5.3550243e-06
  using double precision KISS FFT
  3d grid and FFT values/proc = 15625 5832
Generated 0 of 21 mixed pair_coeff terms from geometric mixing rule
Per MPI rank memory allocation (min/avg/max) = 9.773 | 9.773 | 9.773 Mbytes
   Step          Temp          E_pair         E_mol          TotEng         Press     
        88   1884.3399      2.8793187      0.76089049     4.1273493     -178.4801     
        89   2118.4417      2.8392354      0.74034701     4.1272426     -170.69866    
Loop time of 0.00112101 on 1 procs for 1 steps with 3 atoms

run 1 pre yes post no
PPPM initialization ...
  using 12-bit tables for long-range coulomb (src/kspace.cpp:342)
  G vector (1/distance) = 0.28934131
  grid = 18 18 18
  stencil order = 5
  estimated absolute RMS force accuracy = 7.7110449e-05
  estimated relative force accuracy = 5.3550243e-06
  using double precision KISS FFT
  3d grid and FFT values/proc = 15625 5832
Generated 0 of 21 mixed pair_coeff terms from geometric mixing rule
Per MPI rank memory allocation (min/avg/max) = 9.773 | 9.773 | 9.773 Mbytes
   Step          Temp          E_pair         E_mol          TotEng         Press     
        89   2118.4417      2.8392354      0.74034701     4.1272426     -170.69866    
        90   2431.4505      2.7989207      0.69956034     4.1270603     -156.45294    
Loop time of 0.00109418 on 1 procs for 1 steps with 3 atoms

run 1 pre yes post no
PPPM initialization ...
  using 12-bit tables for long-range coulomb (src/kspace.cpp:342)
  G vector (1/distance) = 0.28934131
  grid = 18 18 18
  stencil order = 5
  estimated absolute RMS force accuracy = 7.7110449e-05
  estimated relative force accuracy = 5.3550243e-06
  using double precision KISS FFT
  3d grid and FFT values/proc = 15625 5832
Generated 0 of 21 mixed pair_coeff terms from geometric mixing rule
Per MPI rank memory allocation (min/avg/max) = 9.773 | 9.773 | 9.773 Mbytes
   Step          Temp          E_pair         E_mol          TotEng         Press     
        90   2431.4505      2.7989207      0.69956034     4.1270603     -156.45294    
        91   2811.692       2.7585249      0.64141431     4.1268186     -136.34477    
Loop time of 0.00106237 on 1 procs for 1 steps with 3 atoms

run 1 pre yes post no
PPPM initialization ...
  using 12-bit tables for long-range coulomb (src/kspace.cpp:342)
  G vector (1/distance) = 0.28934131
  grid = 18 18 18
  stencil order = 5
  estimated absolute RMS force accuracy = 7.7110449e-05
  estimated relative force accuracy = 5.3550243e-06
  using double precision KISS FFT
  3d grid and FFT values/proc = 15625 5832
Generated 0 of 21 mixed pair_coeff terms from geometric mixing rule
Per MPI rank memory allocation (min/avg/max) = 9.773 | 9.773 | 9.773 Mbytes
   Step          Temp          E_pair         E_mol          TotEng         Press     
        91   2811.692       2.7585249      0.64141431     4.1268186     -136.34477    
        92   3243.7165      2.718196       0.56977491     4.1265374     -111.17889    
Loop time of 0.00110129 on 1 procs for 1 steps with 3 atoms

run 1 pre yes post no
PPPM initialization ...
  using 12-bit tables for long-range coulomb (src/kspace.cpp:342)
  G vector (1/distance) = 0.28934131
  grid = 18 18 18
  stencil order = 5
  estimated absolute RMS force accuracy = 7.7110449e-05
  estimated relative force accuracy = 5.3550243e-06
  using double precision KISS FFT
  3d grid and FFT values/proc = 15625 5832
Generated 0 of 21 mixed pair_coeff terms from geometric mixing rule
Per MPI rank memory allocation (min/avg/max) = 9.773 | 9.773 | 9.773 Mbytes
   Step          Temp          E_pair         E_mol          TotEng         Press     
        92   3243.7165      2.718196       0.56977491     4.1265374     -111.17889    
        93   3709.5284      2.6780711      0.48918169     4.1262412     -81.917666    
Loop time of 0.00112974 on 1 procs for 1 steps with 3 atoms

run 1 pre yes post no
PPPM initialization ...
  using 12-bit tables for long-range coulomb (src/kspace.cpp:342)
  G vector (1/distance) = 0.28934131
  grid = 18 18 18
  stencil order = 5
  estimated absolute RMS force accuracy = 7.7110449e-05
  estimated relative force accuracy = 5.3550243e-06
  using double precision KISS FFT
  3d grid and FFT values/proc = 15625 5832
Generated 0 of 21 mixed pair_coeff terms from geometric mixing rule
Per MPI rank memory allocation (min/avg/max) = 9.773 | 9.773 | 9.773 Mbytes
   Step          Temp          E_pair         E_mol          TotEng         Press     
        93   3709.5284      2.6780711      0.48918169     4.1262412     -81.917666    
        94   4190.0038      2.6382601      0.40449251     4.1259536     -49.628538    
Loop time of 0.00118539 on 1 procs for 1 steps with 3 atoms

run 1 pre yes post no
PPPM initialization ...
  using 12-bit tables for long-range coulomb (src/kspace.cpp:342)
  G vector (1/distance) = 0.28934131
  grid = 18 18 18
  stencil order = 5
  estimated absolute RMS force accuracy = 7.7110449e-05
  estimated relative force accuracy = 5.3550243e-06
  using double precision KISS FFT
  3d grid and FFT values/proc = 15625 5832
Generated 0 of 21 mixed pair_coeff terms from geometric mixing rule
Per MPI rank memory allocation (min/avg/max) = 9.773 | 9.773 | 9.773 Mbytes
   Step          Temp          E_pair         E_mol          TotEng         Press     
        94   4190.0038      2.6382601      0.40449251     4.1259536     -49.628538    
        95   4666.3838      2.5988346      0.32050925     4.1256987     -15.427451    
Loop time of 0.00112699 on 1 procs for 1 steps with 3 atoms

run 1 pre yes post no
PPPM initialization ...
  using 12-bit tables for long-range coulomb (src/kspace.cpp:342)
  G vector (1/distance) = 0.28934131
  grid = 18 18 18
  stencil order = 5
  estimated absolute RMS force accuracy = 7.7110449e-05
  estimated relative force accuracy = 5.3550243e-06
  using double precision KISS FFT
  3d grid and FFT values/proc = 15625 5832
Generated 0 of 21 mixed pair_coeff terms from geometric mixing rule
Per MPI rank memory allocation (min/avg/max) = 9.773 | 9.773 | 9.773 Mbytes
   Step          Temp          E_pair         E_mol          TotEng         Press     
        95   4666.3838      2.5988346      0.32050925     4.1256987     -15.427451    
        96   5121.7263      2.5598138      0.24161401     4.125498       19.577483    
Loop time of 0.00124295 on 1 procs for 1 steps with 3 atoms

run 1 pre yes post no
PPPM initialization ...
  using 12-bit tables for long-range coulomb (src/kspace.cpp:342)
  G vector (1/distance) = 0.28934131
  grid = 18 18 18
  stencil order = 5
  estimated absolute RMS force accuracy = 7.7110449e-05
  estimated relative force accuracy = 5.3550243e-06
  using double precision KISS FFT
  3d grid and FFT values/proc = 15625 5832
Generated 0 of 21 mixed pair_coeff terms from geometric mixing rule
Per MPI rank memory allocation (min/avg/max) = 9.773 | 9.773 | 9.773 Mbytes
   Step          Temp          E_pair         E_mol          TotEng         Press     
        96   5121.7263      2.5598138      0.24161401     4.125498       19.577483    
        97   5542.1975      2.521152       0.17144556     4.1253681      54.338202    
Loop time of 0.00108542 on 1 procs for 1 steps with 3 atoms

run 1 pre yes post no
PPPM initialization ...
  using 12-bit tables for long-range coulomb (src/kspace.cpp:342)
  G vector (1/distance) = 0.28934131
  grid = 18 18 18
  stencil order = 5
  estimated absolute RMS force accuracy = 7.7110449e-05
  estimated relative force accuracy = 5.3550243e-06
  using double precision KISS FFT
  3d grid and FFT values/proc = 15625 5832
Generated 0 of 21 mixed pair_coeff terms from geometric mixing rule
Per MPI rank memory allocation (min/avg/max) = 9.773 | 9.773 | 9.773 Mbytes
   Step          Temp          E_pair         E_mol          TotEng         Press     
        97   5542.1975      2.521152       0.17144556     4.1253681      54.338202    
        98   5918.0902      2.4827306      0.11264337     4.1253203      87.911049    
Loop time of 0.00107298 on 1 procs for 1 steps with 3 atoms

run 1 pre yes post no
PPPM initialization ...
  using 12-bit tables for long-range coulomb (src/kspace.cpp:342)
  G vector (1/distance) = 0.28934131
  grid = 18 18 18
  stencil order = 5
  estimated absolute RMS force accuracy = 7.7110449e-05
  estimated relative force accuracy = 5.3550243e-06
  using double precision KISS FFT
  3d grid and FFT values/proc = 15625 5832
Generated 0 of 21 mixed pair_coeff terms from geometric mixing rule
Per MPI rank memory allocation (min/avg/max) = 9.773 | 9.773 | 9.773 Mbytes
   Step          Temp          E_pair         E_mol          TotEng         Press     
        98   5918.0902      2.4827306      0.11264337     4.1253203      87.911049    
        99   6244.4782      2.4443501      0.066682396    4.1253568      119.49015    
Loop time of 0.00108526 on 1 procs for 1 steps with 3 atoms

run 1 pre yes post no
PPPM initialization ...
  using 12-bit tables for long-range coulomb (src/kspace.cpp:342)
  G vector (1/distance) = 0.28934131
  grid = 18 18 18
  stencil order = 5
  estimated absolute RMS force accuracy = 7.7110449e-05
  estimated relative force accuracy = 5.3550243e-06
  using double precision KISS FFT
  3d grid and FFT values/proc = 15625 5832
Generated 0 of 21 mixed pair_coeff terms from geometric mixing rule
Per MPI rank memory allocation (min/avg/max) = 9.773 | 9.773 | 9.773 Mbytes
   Step          Temp          E_pair         E_mol          TotEng         Press     
        99   6244.4782      2.4443501      0.066682396    4.1253568      119.49015    
       100   6521.4345      2.4057338      0.03381549     4.1254725      148.42763    
Loop time of 0.00281143 on 1 procs for 1 steps with 3 atoms

run 1 pre yes post no
PPPM initialization ...
  using 12-bit tables for long-range coulomb (src/kspace.cpp:342)
  G vector (1/distance) = 0.28934131
  grid = 18 18 18
  stencil order = 5
  estimated absolute RMS force accuracy = 7.7110449e-05
  estimated relative force accuracy = 5.3550243e-06
  using double precision KISS FFT
  3d grid and FFT values/proc = 15625 5832
Generated 0 of 21 mixed pair_coeff terms from geometric mixing rule
Per MPI rank memory allocation (min/avg/max) = 9.773 | 9.773 | 9.773 Mbytes
   Step          Temp          E_pair         E_mol          TotEng         Press     
       100   6521.4345      2.4057338      0.03381549     4.1254725      148.42763    
       101   6753.7808      2.3665336      0.013131984    4.125655       174.23927    
Loop time of 0.00268306 on 1 procs for 1 steps with 3 atoms

run 1 pre yes post no
PPPM initialization ...
  using 12-bit tables for long-range coulomb (src/kspace.cpp:342)
  G vector (1/distance) = 0.28934131
  grid = 18 18 18
  stencil order = 5
  estimated absolute RMS force accuracy = 7.7110449e-05
  estimated relative force accuracy = 5.3550243e-06
  using double precision KISS FFT
  3d grid and FFT values/proc = 15625 5832
Generated 0 of 21 mixed pair_coeff terms from geometric mixing rule
Per MPI rank memory allocation (min/avg/max) = 9.773 | 9.773 | 9.773 Mbytes
   Step          Temp          E_pair         E_mol          TotEng         Press     
       101   6753.7808      2.3665336      0.013131984    4.125655       174.23927    
       102   6950.3692      2.3263419      0.0027315536   4.1258849      196.59561    
Loop time of 0.00319832 on 1 procs for 1 steps with 3 atoms

run 1 pre yes post no
PPPM initialization ...
  using 12-bit tables for long-range coulomb (src/kspace.cpp:342)
  G vector (1/distance) = 0.28934131
  grid = 18 18 18
  stencil order = 5
  estimated absolute RMS force accuracy = 7.7110449e-05
  estimated relative force accuracy = 5.3550243e-06
  using double precision KISS FFT
  3d grid and FFT values/proc = 15625 5832
Generated 0 of 21 mixed pair_coeff terms from geometric mixing rule
Per MPI rank memory allocation (min/avg/max) = 9.773 | 9.773 | 9.773 Mbytes
   Step          Temp          E_pair         E_mol          TotEng         Press     
       102   6950.3692      2.3263419      0.0027315536   4.1258849      196.59561    
       103   7122.9426      2.2847067      1.6862445e-06  4.1261336      215.29971    
Loop time of 0.00277829 on 1 procs for 1 steps with 3 atoms

run 1 pre yes post no
PPPM initialization ...
  using 12-bit tables for long-range coulomb (src/kspace.cpp:342)
  G vector (1/distance) = 0.28934131
  grid = 18 18 18
  stencil order = 5
  estimated absolute RMS force accuracy = 7.7110449e-05
  estimated relative force accuracy = 5.3550243e-06
  using double precision KISS FFT
  3d grid and FFT values/proc = 15625 5832
Generated 0 of 21 mixed pair_coeff terms from geometric mixing rule
Per MPI rank memory allocation (min/avg/max) = 9.773 | 9.773 | 9.773 Mbytes
   Step          Temp          E_pair         E_mol          TotEng         Press     
       103   7122.9426      2.2847067      1.6862445e-06  4.1261336      215.29971    
       104   7284.6624      2.2411634      0.0019762256   4.1263727      230.25489    
Loop time of 0.00296727 on 1 procs for 1 steps with 3 atoms

run 1 pre yes post no
PPPM initialization ...
  using 12-bit tables for long-range coulomb (src/kspace.cpp:342)
  G vector (1/distance) = 0.28934131
  grid = 18 18 18
  stencil order = 5
  estimated absolute RMS force accuracy = 7.7110449e-05
  estimated relative force accuracy = 5.3550243e-06
  using double precision KISS FFT
  3d grid and FFT values/proc = 15625 5832
Generated 0 of 21 mixed pair_coeff terms from geometric mixing rule
Per MPI rank memory allocation (min/avg/max) = 9.773 | 9.773 | 9.773 Mbytes
   Step          Temp          E_pair         E_mol          TotEng         Press     
       104   7284.6624      2.2411634      0.0019762256   4.1263727      230.25489    
       105   7448.4335      2.1952564      0.0057421985   4.1265698      241.42517    
Loop time of 0.00305922 on 1 procs for 1 steps with 3 atoms

run 1 pre yes post no
PPPM initialization ...
  using 12-bit tables for long-range coulomb (src/kspace.cpp:342)
  G vector (1/distance) = 0.28934131
  grid = 18 18 18
  stencil order = 5
  estimated absolute RMS force accuracy = 7.7110449e-05
  estimated relative force accuracy = 5.3550243e-06
  using double precision KISS FFT
  3d grid and FFT values/proc = 15625 5832
Generated 0 of 21 mixed pair_coeff terms from geometric mixing rule
Per MPI rank memory allocation (min/avg/max) = 9.773 | 9.773 | 9.773 Mbytes
   Step          Temp          E_pair         E_mol          TotEng         Press     
       105   7448.4335      2.1952564      0.0057421985   4.1265698      241.42517    
       106   7625.187       2.1465785      0.0088539757   4.126698       248.79442    
Loop time of 0.00276952 on 1 procs for 1 steps with 3 atoms

run 1 pre yes post no
PPPM initialization ...
  using 12-bit tables for long-range coulomb (src/kspace.cpp:342)
  G vector (1/distance) = 0.28934131
  grid = 18 18 18
  stencil order = 5
  estimated absolute RMS force accuracy = 7.7110449e-05
  estimated relative force accuracy = 5.3550243e-06
  using double precision KISS FFT
  3d grid and FFT values/proc = 15625 5832
Generated 0 of 21 mixed pair_coeff terms from geometric mixing rule
Per MPI rank memory allocation (min/avg/max) = 9.773 | 9.773 | 9.773 Mbytes
   Step          Temp          E_pair         E_mol          TotEng         Press     
       106   7625.187       2.1465785      0.0088539757   4.126698       248.79442    
       107   7822.3005      2.0948011      0.0097091959   4.1267337      252.32852    
Loop time of 0.00392113 on 1 procs for 1 steps with 3 atoms

run 1 pre yes post no
PPPM initialization ...
  using 12-bit tables for long-range coulomb (src/kspace.cpp:342)
  G vector (1/distance) = 0.28934131
  grid = 18 18 18
  stencil order = 5
  estimated absolute RMS force accuracy = 7.7110449e-05
  estimated relative force accuracy = 5.3550243e-06
  using double precision KISS FFT
  3d grid and FFT values/proc = 15625 5832
Generated 0 of 21 mixed pair_coeff terms from geometric mixing rule
Per MPI rank memory allocation (min/avg/max) = 9.773 | 9.773 | 9.773 Mbytes
   Step          Temp          E_pair         E_mol          TotEng         Press     
       107   7822.3005      2.0948011      0.0097091959   4.1267337      252.32852    
       108   8042.3348      2.0397141      0.0078412678   4.1266621      251.94646    
Loop time of 0.00333958 on 1 procs for 1 steps with 3 atoms

run 1 pre yes post no
PPPM initialization ...
  using 12-bit tables for long-range coulomb (src/kspace.cpp:342)
  G vector (1/distance) = 0.28934131
  grid = 18 18 18
  stencil order = 5
  estimated absolute RMS force accuracy = 7.7110449e-05
  estimated relative force accuracy = 5.3550243e-06
  using double precision KISS FFT
  3d grid and FFT values/proc = 15625 5832
Generated 0 of 21 mixed pair_coeff terms from geometric mixing rule
Per MPI rank memory allocation (min/avg/max) = 9.773 | 9.773 | 9.773 Mbytes
   Step          Temp          E_pair         E_mol          TotEng         Press     
       108   8042.3348      2.0397141      0.0078412678   4.1266621      251.94646    
       109   8282.2407      1.9812623      0.0040895224   4.1264791      247.50424    
Loop time of 0.00272645 on 1 procs for 1 steps with 3 atoms

run 1 pre yes post no
PPPM initialization ...
  using 12-bit tables for long-range coulomb (src/kspace.cpp:342)
  G vector (1/distance) = 0.28934131
  grid = 18 18 18
  stencil order = 5
  estimated absolute RMS force accuracy = 7.7110449e-05
  estimated relative force accuracy = 5.3550243e-06
  using double precision KISS FFT
  3d grid and FFT values/proc = 15625 5832
Generated 0 of 21 mixed pair_coeff terms from geometric mixing rule
Per MPI rank memory allocation (min/avg/max) = 9.773 | 9.773 | 9.773 Mbytes
   Step          Temp          E_pair         E_mol          TotEng         Press     
       109   8282.2407      1.9812623      0.0040895224   4.1264791      247.50424    
       110   8533.1471      1.9195809      0.00062010143  4.1261926      238.79474    
Loop time of 0.00259169 on 1 procs for 1 steps with 3 atoms

run 1 pre yes post no
PPPM initialization ...
  using 12-bit tables for long-range coulomb (src/kspace.cpp:342)
  G vector (1/distance) = 0.28934131
  grid = 18 18 18
  stencil order = 5
  estimated absolute RMS force accuracy = 7.7110449e-05
  estimated relative force accuracy = 5.3550243e-06
  using double precision KISS FFT
  3d grid and FFT values/proc = 15625 5832
Generated 0 of 21 mixed pair_coeff terms from geometric mixing rule
Per MPI rank memory allocation (min/avg/max) = 9.773 | 9.773 | 9.773 Mbytes
   Step          Temp          E_pair         E_mol          TotEng         Press     
       110   8533.1471      1.9195809      0.00062010143  4.1261926      238.79474    
       111   8780.78        1.8550244      0.00078710269  4.1258213      225.56424    
Loop time of 0.00288334 on 1 procs for 1 steps with 3 atoms

run 1 pre yes post no
PPPM initialization ...
  using 12-bit tables for long-range coulomb (src/kspace.cpp:342)
  G vector (1/distance) = 0.28934131
  grid = 18 18 18
  stencil order = 5
  estimated absolute RMS force accuracy = 7.7110449e-05
  estimated relative force accuracy = 5.3550243e-06
  using double precision KISS FFT
  3d grid and FFT values/proc = 15625 5832
Generated 0 of 21 mixed pair_coeff terms from geometric mixing rule
Per MPI rank memory allocation (min/avg/max) = 9.773 | 9.773 | 9.773 Mbytes
   Step          Temp          E_pair         E_mol          TotEng         Press     
       111   8780.78        1.8550244      0.00078710269  4.1258213      225.56424    
       112   9006.4946      1.7881899      0.0088419884   4.1253935      207.54448    
Loop time of 0.00300214 on 1 procs for 1 steps with 3 atoms

run 1 pre yes post no
PPPM initialization ...
  using 12-bit tables for long-range coulomb (src/kspace.cpp:342)
  G vector (1/distance) = 0.28934131
  grid = 18 18 18
  stencil order = 5
  estimated absolute RMS force accuracy = 7.7110449e-05
  estimated relative force accuracy = 5.3550243e-06
  using double precision KISS FFT
  3d grid and FFT values/proc = 15625 5832
Generated 0 of 21 mixed pair_coeff terms from geometric mixing rule
Per MPI rank memory allocation (min/avg/max) = 9.773 | 9.773 | 9.773 Mbytes
   Step          Temp          E_pair         E_mol          TotEng         Press     
       112   9006.4946      1.7881899      0.0088419884   4.1253935      207.54448    
       113   9188.8429      1.7199296      0.029516978    4.1249489      184.49689    
Loop time of 0.00277231 on 1 procs for 1 steps with 3 atoms

run 1 pre yes post no
PPPM initialization ...
  using 12-bit tables for long-range coulomb (src/kspace.cpp:342)
  G vector (1/distance) = 0.28934131
  grid = 18 18 18
  stencil order = 5
  estimated absolute RMS force accuracy = 7.7110449e-05
  estimated relative force accuracy = 5.3550243e-06
  using double precision KISS FFT
  3d grid and FFT values/proc = 15625 5832
Generated 0 of 21 mixed pair_coeff terms from geometric mixing rule
Per MPI rank memory allocation (min/avg/max) = 9.773 | 9.773 | 9.773 Mbytes
   Step          Temp          E_pair         E_mol          TotEng         Press     
       113   9188.8429      1.7199296      0.029516978    4.1249489      184.49689    
       114   9305.5564      1.6513408      0.067522658    4.1245386      156.26372    
Loop time of 0.00252684 on 1 procs for 1 steps with 3 atoms

run 1 pre yes post no
PPPM initialization ...
  using 12-bit tables for long-range coulomb (src/kspace.cpp:342)
  G vector (1/distance) = 0.28934131
  grid = 18 18 18
  stencil order = 5
  estimated absolute RMS force accuracy = 7.7110449e-05
  estimated relative force accuracy = 5.3550243e-06
  using double precision KISS FFT
  3d grid and FFT values/proc = 15625 5832
Generated 0 of 21 mixed pair_coeff terms from geometric mixing rule
Per MPI rank memory allocation (min/avg/max) = 9.773 | 9.773 | 9.773 Mbytes
   Step          Temp          E_pair         E_mol          TotEng         Press     
       114   9305.5564      1.6513408      0.067522658    4.1245386      156.26372    
       115   9335.817       1.5837476      0.12701016     4.1242559      122.8214     
Loop time of 0.00257319 on 1 procs for 1 steps with 3 atoms

run 1 pre yes post no
PPPM initialization ...
  using 12-bit tables for long-range coulomb (src/kspace.cpp:342)
  G vector (1/distance) = 0.28934131
  grid = 18 18 18
  stencil order = 5
  estimated absolute RMS force accuracy = 7.7110449e-05
  estimated relative force accuracy = 5.3550243e-06
  using double precision KISS FFT
  3d grid and FFT values/proc = 15625 5832
Generated 0 of 21 mixed pair_coeff terms from geometric mixing rule
Per MPI rank memory allocation (min/avg/max) = 9.773 | 9.773 | 9.773 Mbytes
   Step          Temp          E_pair         E_mol          TotEng         Press     
       115   9335.817       1.5837476      0.12701016     4.1242559      122.8214     
       116   9262.7096      1.5186408      0.21105489     4.1242941      84.329516    
Loop time of 0.00302576 on 1 procs for 1 steps with 3 atoms

run 1 pre yes post no
PPPM initialization ...
  using 12-bit tables for long-range coulomb (src/kspace.cpp:342)
  G vector (1/distance) = 0.28934131
  grid = 18 18 18
  stencil order = 5
  estimated absolute RMS force accuracy = 7.7110449e-05
  estimated relative force accuracy = 5.3550243e-06
  using double precision KISS FFT
  3d grid and FFT values/proc = 15625 5832
Generated 0 of 21 mixed pair_coeff terms from geometric mixing rule
Per MPI rank memory allocation (min/avg/max) = 9.773 | 9.773 | 9.773 Mbytes
   Step          Temp          E_pair         E_mol          TotEng         Press     
       116   9262.7096      1.5186408      0.21105489     4.1242941      84.329516    
       117   9075.7317      1.4575964      0.32122529     4.1250825      41.170413    
Loop time of 0.00311634 on 1 procs for 1 steps with 3 atoms

run 1 pre yes post no
PPPM initialization ...
  using 12-bit tables for long-range coulomb (src/kspace.cpp:342)
  G vector (1/distance) = 0.28934131
  grid = 18 18 18
  stencil order = 5
  estimated absolute RMS force accuracy = 7.7110449e-05
  estimated relative force accuracy = 5.3550243e-06
  using double precision KISS FFT
  3d grid and FFT values/proc = 15625 5832
Generated 0 of 21 mixed pair_coeff terms from geometric mixing rule
Per MPI rank memory allocation (min/avg/max) = 9.773 | 9.773 | 9.773 Mbytes
   Step          Temp          E_pair         E_mol          TotEng         Press     
       117   9075.7317      1.4575964      0.32122529     4.1250825      41.170413    
       118   8772.9931      1.4021635      0.45730863     4.1274688     -6.0311976    
Loop time of 0.00273558 on 1 procs for 1 steps with 3 atoms

run 1 pre yes post no
PPPM initialization ...
  using 12-bit tables for long-range coulomb (src/kspace.cpp:342)
  G vector (1/distance) = 0.28934131
  grid = 18 18 18
  stencil order = 5
  estimated absolute RMS force accuracy = 7.7110449e-05
  estimated relative force accuracy = 5.3550243e-06
  using double precision KISS FFT
  3d grid and FFT values/proc = 15625 5832
Generated 0 of 21 mixed pair_coeff terms from geometric mixing rule
Per MPI rank memory allocation (min/avg/max) = 9.773 | 9.773 | 9.773 Mbytes
   Step          Temp          E_pair         E_mol          TotEng         Press     
       118   8772.9931      1.4021635      0.45730863     4.1274688     -6.0311976    
       119   8362.2378      1.3537249      0.61726798     4.132801      -56.425171    
Loop time of 0.00304784 on 1 procs for 1 steps with 3 atoms

run 1 pre yes post no
PPPM initialization ...
  using 12-bit tables for long-range coulomb (src/kspace.cpp:342)
  G vector (1/distance) = 0.28934131
  grid = 18 18 18
  stencil order = 5
  estimated absolute RMS force accuracy = 7.7110449e-05
  estimated relative force accuracy = 5.3550243e-06
  using double precision KISS FFT
  3d grid and FFT values/proc = 15625 5832
Generated 0 of 21 mixed pair_coeff terms from geometric mixing rule
Per MPI rank memory allocation (min/avg/max) = 9.773 | 9.773 | 9.773 Mbytes
   Step          Temp          E_pair         E_mol          TotEng         Press     
       119   8362.2378      1.3537249      0.61726798     4.132801      -56.425171    
       120   7859.5706      1.3133503      0.79747104     4.1426798     -109.00403    
Loop time of 0.00330033 on 1 procs for 1 steps with 3 atoms

run 1 pre yes post no
PPPM initialization ...
  using 12-bit tables for long-range coulomb (src/kspace.cpp:342)
  G vector (1/distance) = 0.28934131
  grid = 18 18 18
  stencil order = 5
  estimated absolute RMS force accuracy = 7.7110449e-05
  estimated relative force accuracy = 5.3550243e-06
  using double precision KISS FFT
  3d grid and FFT values/proc = 15625 5832
Generated 0 of 21 mixed pair_coeff terms from geometric mixing rule
Per MPI rank memory allocation (min/avg/max) = 9.773 | 9.773 | 9.773 Mbytes
   Step          Temp          E_pair         E_mol          TotEng         Press     
       120   7859.5706      1.3133503      0.79747104     4.1426798     -109.00403    
       121   7285.6837      1.2816923      0.99314046     4.1583299     -162.71065    
Loop time of 0.00275688 on 1 procs for 1 steps with 3 atoms

run 1 pre yes post no
PPPM initialization ...
  using 12-bit tables for long-range coulomb (src/kspace.cpp:342)
  G vector (1/distance) = 0.28934131
  grid = 18 18 18
  stencil order = 5
  estimated absolute RMS force accuracy = 7.7110449e-05
  estimated relative force accuracy = 5.3550243e-06
  using double precision KISS FFT
  3d grid and FFT values/proc = 15625 5832
Generated 0 of 21 mixed pair_coeff terms from geometric mixing rule
Per MPI rank memory allocation (min/avg/max) = 9.773 | 9.773 | 9.773 Mbytes
   Step          Temp          E_pair         E_mol          TotEng         Press     
       121   7285.6837      1.2816923      0.99314046     4.1583299     -162.71065    
       122   6661.2023      1.2589461      1.1988663      4.1798684     -216.53945    
Loop time of 0.0030147 on 1 procs for 1 steps with 3 atoms

run 1 pre yes post no
PPPM initialization ...
  using 12-bit tables for long-range coulomb (src/kspace.cpp:342)
  G vector (1/distance) = 0.28934131
  grid = 18 18 18
  stencil order = 5
  estimated absolute RMS force accuracy = 7.7110449e-05
  estimated relative force accuracy = 5.3550243e-06
  using double precision KISS FFT
  3d grid and FFT values/proc = 15625 5832
Generated 0 of 21 mixed pair_coeff terms from geometric mixing rule
Per MPI rank memory allocation (min/avg/max) = 9.773 | 9.773 | 9.773 Mbytes
   Step          Temp          E_pair         E_mol          TotEng         Press     
       122   6661.2023      1.2589461      1.1988663      4.1798684     -216.53945    
       123   6003.6581      1.2449241      1.4089904      4.2059819     -269.5773     
Loop time of 0.00372221 on 1 procs for 1 steps with 3 atoms

run 1 pre yes post no
PPPM initialization ...
  using 12-bit tables for long-range coulomb (src/kspace.cpp:342)
  G vector (1/distance) = 0.28934131
  grid = 18 18 18
  stencil order = 5
  estimated absolute RMS force accuracy = 7.7110449e-05
  estimated relative force accuracy = 5.3550243e-06
  using double precision KISS FFT
  3d grid and FFT values/proc = 15625 5832
Generated 0 of 21 mixed pair_coeff terms from geometric mixing rule
Per MPI rank memory allocation (min/avg/max) = 9.773 | 9.773 | 9.773 Mbytes
   Step          Temp          E_pair         E_mol          TotEng         Press     
       123   6003.6581      1.2449241      1.4089904      4.2059819     -269.5773     
       124   5327.3493      1.2391505      1.6177673      4.2341457     -320.97307    
Loop time of 0.00383096 on 1 procs for 1 steps with 3 atoms

run 1 pre yes post no
PPPM initialization ...
  using 12-bit tables for long-range coulomb (src/kspace.cpp:342)
  G vector (1/distance) = 0.28934131
  grid = 18 18 18
  stencil order = 5
  estimated absolute RMS force accuracy = 7.7110449e-05
  estimated relative force accuracy = 5.3550243e-06
  using double precision KISS FFT
  3d grid and FFT values/proc = 15625 5832
Generated 0 of 21 mixed pair_coeff terms from geometric mixing rule
Per MPI rank memory allocation (min/avg/max) = 9.773 | 9.773 | 9.773 Mbytes
   Step          Temp          E_pair         E_mol          TotEng         Press     
       124   5327.3493      1.2391505      1.6177673      4.2341457     -320.97307    
       125   4645.264       1.2410072      1.8193435      4.2612456     -369.86648    
Loop time of 0.0035657 on 1 procs for 1 steps with 3 atoms

run 1 pre yes post no
PPPM initialization ...
  using 12-bit tables for long-range coulomb (src/kspace.cpp:342)
  G vector (1/distance) = 0.28934131
  grid = 18 18 18
  stencil order = 5
  estimated absolute RMS force accuracy = 7.7110449e-05
  estimated relative force accuracy = 5.3550243e-06
  using double precision KISS FFT
  3d grid and FFT values/proc = 15625 5832
Generated 0 of 21 mixed pair_coeff terms from geometric mixing rule
Per MPI rank memory allocation (min/avg/max) = 9.773 | 9.773 | 9.773 Mbytes
   Step          Temp          E_pair         E_mol          TotEng         Press     
       125   4645.264       1.2410072      1.8193435      4.2612456     -369.86648    
       126   3971.3622      1.2498309      2.0076753      4.2841839     -415.32451    
Loop time of 0.0033018 on 1 procs for 1 steps with 3 atoms

run 1 pre yes post no
PPPM initialization ...
  using 12-bit tables for long-range coulomb (src/kspace.cpp:342)
  G vector (1/distance) = 0.28934131
  grid = 18 18 18
  stencil order = 5
  estimated absolute RMS force accuracy = 7.7110449e-05
  estimated relative force accuracy = 5.3550243e-06
  using double precision KISS FFT
  3d grid and FFT values/proc = 15625 5832
Generated 0 of 21 mixed pair_coeff terms from geometric mixing rule
Per MPI rank memory allocation (min/avg/max) = 9.773 | 9.773 | 9.773 Mbytes
   Step          Temp          E_pair         E_mol          TotEng         Press     
       126   3971.3622      1.2498309      2.0076753      4.2841839     -415.32451    
       127   3322.1         1.2650057      2.1764842      4.3003201     -456.30807    
Loop time of 0.00391421 on 1 procs for 1 steps with 3 atoms

run 1 pre yes post no
PPPM initialization ...
  using 12-bit tables for long-range coulomb (src/kspace.cpp:342)
  G vector (1/distance) = 0.28934131
  grid = 18 18 18
  stencil order = 5
  estimated absolute RMS force accuracy = 7.7110449e-05
  estimated relative force accuracy = 5.3550243e-06
  using double precision KISS FFT
  3d grid and FFT values/proc = 15625 5832
Generated 0 of 21 mixed pair_coeff terms from geometric mixing rule
Per MPI rank memory allocation (min/avg/max) = 9.773 | 9.773 | 9.773 Mbytes
   Step          Temp          E_pair         E_mol          TotEng         Press     
       127   3322.1         1.2650057      2.1764842      4.3003201     -456.30807    
       128   2717.0351      1.2860054      2.3192951      4.3077092     -491.66998    
Loop time of 0.00363155 on 1 procs for 1 steps with 3 atoms

run 1 pre yes post no
PPPM initialization ...
  using 12-bit tables for long-range coulomb (src/kspace.cpp:342)
  G vector (1/distance) = 0.28934131
  grid = 18 18 18
  stencil order = 5
  estimated absolute RMS force accuracy = 7.7110449e-05
  estimated relative force accuracy = 5.3550243e-06
  using double precision KISS FFT
  3d grid and FFT values/proc = 15625 5832
Generated 0 of 21 mixed pair_coeff terms from geometric mixing rule
Per MPI rank memory allocation (min/avg/max) = 9.773 | 9.773 | 9.773 Mbytes
   Step          Temp          E_pair         E_mol          TotEng         Press     
       128   2717.0351      1.2860054      2.3192951      4.3077092     -491.66998    
       129   2178.8306      1.3124361      2.429568       4.3052761     -520.17195    
Loop time of 0.0027074 on 1 procs for 1 steps with 3 atoms

run 1 pre yes post no
PPPM initialization ...
  using 12-bit tables for long-range coulomb (src/kspace.cpp:342)
  G vector (1/distance) = 0.28934131
  grid = 18 18 18
  stencil order = 5
  estimated absolute RMS force accuracy = 7.7110449e-05
  estimated relative force accuracy = 5.3550243e-06
  using double precision KISS FFT
  3d grid and FFT values/proc = 15625 5832
Generated 0 of 21 mixed pair_coeff terms from geometric mixing rule
Per MPI rank memory allocation (min/avg/max) = 9.773 | 9.773 | 9.773 Mbytes
   Step          Temp          E_pair         E_mol          TotEng         Press     
       129   2178.8306      1.3124361      2.429568       4.3052761     -520.17195    
       130   1732.9025      1.3440735      2.5009276      4.2929915     -540.51426    
Loop time of 0.00325233 on 1 procs for 1 steps with 3 atoms

run 1 pre yes post no
PPPM initialization ...
  using 12-bit tables for long-range coulomb (src/kspace.cpp:342)
  G vector (1/distance) = 0.28934131
  grid = 18 18 18
  stencil order = 5
  estimated absolute RMS force accuracy = 7.7110449e-05
  estimated relative force accuracy = 5.3550243e-06
  using double precision KISS FFT
  3d grid and FFT values/proc = 15625 5832
Generated 0 of 21 mixed pair_coeff terms from geometric mixing rule
Per MPI rank memory allocation (min/avg/max) = 9.773 | 9.773 | 9.773 Mbytes
   Step          Temp          E_pair         E_mol          TotEng         Press     
       130   1732.9025      1.3440735      2.5009276      4.2929915     -540.51426    
       131   1406.6181      1.3808616      2.5275124      4.2720133     -551.38273    
Loop time of 0.0038293 on 1 procs for 1 steps with 3 atoms

run 1 pre yes post no
PPPM initialization ...
  using 12-bit tables for long-range coulomb (src/kspace.cpp:342)
  G vector (1/distance) = 0.28934131
  grid = 18 18 18
  stencil order = 5
  estimated absolute RMS force accuracy = 7.7110449e-05
  estimated relative force accuracy = 5.3550243e-06
  using double precision KISS FFT
  3d grid and FFT values/proc = 15625 5832
Generated 0 of 21 mixed pair_coeff terms from geometric mixing rule
Per MPI rank memory allocation (min/avg/max) = 9.773 | 9.773 | 9.773 Mbytes
   Step          Temp          E_pair         E_mol          TotEng         Press     
       131   1406.6181      1.3808616      2.5275124      4.2720133     -551.38273    
       132   1227.6211      1.4229248      2.5044721      4.2447619     -551.52393    
Loop time of 0.00322764 on 1 procs for 1 steps with 3 atoms

run 1 pre yes post no
PPPM initialization ...
  using 12-bit tables for long-range coulomb (src/kspace.cpp:342)
  G vector (1/distance) = 0.28934131
  grid = 18 18 18
  stencil order = 5
  estimated absolute RMS force accuracy = 7.7110449e-05
  estimated relative force accuracy = 5.3550243e-06
  using double precision KISS FFT
  3d grid and FFT values/proc = 15625 5832
Generated 0 of 21 mixed pair_coeff terms from geometric mixing rule
Per MPI rank memory allocation (min/avg/max) = 9.773 | 9.773 | 9.773 Mbytes
   Step          Temp          E_pair         E_mol          TotEng         Press     
       132   1227.6211      1.4229248      2.5044721      4.2447619     -551.52393    
       133   1220.7193      1.4705051      2.4286224      4.2147082     -539.86572    
Loop time of 0.00315929 on 1 procs for 1 steps with 3 atoms

run 1 pre yes post no
PPPM initialization ...
  using 12-bit tables for long-range coulomb (src/kspace.cpp:342)
  G vector (1/distance) = 0.28934131
  grid = 18 18 18
  stencil order = 5
  estimated absolute RMS force accuracy = 7.7110449e-05
  estimated relative force accuracy = 5.3550243e-06
  using double precision KISS FFT
  3d grid and FFT values/proc = 15625 5832
Generated 0 of 21 mixed pair_coeff terms from geometric mixing rule
Per MPI rank memory allocation (min/avg/max) = 9.773 | 9.773 | 9.773 Mbytes
   Step          Temp          E_pair         E_mol          TotEng         Press     
       133   1220.7193      1.4705051      2.4286224      4.2147082     -539.86572    
       134   1403.033       1.5238903      2.2992125      4.1858152     -515.6859     
Loop time of 0.00300954 on 1 procs for 1 steps with 3 atoms

run 1 pre yes post no
PPPM initialization ...
  using 12-bit tables for long-range coulomb (src/kspace.cpp:342)
  G vector (1/distance) = 0.28934131
  grid = 18 18 18
  stencil order = 5
  estimated absolute RMS force accuracy = 7.7110449e-05
  estimated relative force accuracy = 5.3550243e-06
  using double precision KISS FFT
  3d grid and FFT values/proc = 15625 5832
Generated 0 of 21 mixed pair_coeff terms from geometric mixing rule
Per MPI rank memory allocation (min/avg/max) = 9.773 | 9.773 | 9.773 Mbytes
   Step          Temp          E_pair         E_mol          TotEng         Press     
       134   1403.033       1.5238903      2.2992125      4.1858152     -515.6859     
       135   1777.8944      1.5832844      2.1186826      4.1615887     -478.8134     
Loop time of 0.00346757 on 1 procs for 1 steps with 3 atoms

run 1 pre yes post no
PPPM initialization ...
  using 12-bit tables for long-range coulomb (src/kspace.cpp:342)
  G vector (1/distance) = 0.28934131
  grid = 18 18 18
  stencil order = 5
  estimated absolute RMS force accuracy = 7.7110449e-05
  estimated relative force accuracy = 5.3550243e-06
  using double precision KISS FFT
  3d grid and FFT values/proc = 15625 5832
Generated 0 of 21 mixed pair_coeff terms from geometric mixing rule
Per MPI rank memory allocation (min/avg/max) = 9.773 | 9.773 | 9.773 Mbytes
   Step          Temp          E_pair         E_mol          TotEng         Press     
       135   1777.8944      1.5832844      2.1186826      4.1615887     -478.8134     
       136   2329.2905      1.6486922      1.893206       4.1440671     -429.80976    
Loop time of 0.00301615 on 1 procs for 1 steps with 3 atoms

run 1 pre yes post no
PPPM initialization ...
  using 12-bit tables for long-range coulomb (src/kspace.cpp:342)
  G vector (1/distance) = 0.28934131
  grid = 18 18 18
  stencil order = 5
  estimated absolute RMS force accuracy = 7.7110449e-05
  estimated relative force accuracy = 5.3550243e-06
  using double precision KISS FFT
  3d grid and FFT values/proc = 15625 5832
Generated 0 of 21 mixed pair_coeff terms from geometric mixing rule
Per MPI rank memory allocation (min/avg/max) = 9.773 | 9.773 | 9.773 Mbytes
   Step          Temp          E_pair         E_mol          TotEng         Press     
       136   2329.2905      1.6486922      1.893206       4.1440671     -429.80976    
       137   3019.7787      1.7198147      1.6327777      4.1332665     -370.05363    
Loop time of 0.00260411 on 1 procs for 1 steps with 3 atoms

run 1 pre yes post no
PPPM initialization ...
  using 12-bit tables for long-range coulomb (src/kspace.cpp:342)
  G vector (1/distance) = 0.28934131
  grid = 18 18 18
  stencil order = 5
  estimated absolute RMS force accuracy = 7.7110449e-05
  estimated relative force accuracy = 5.3550243e-06
  using double precision KISS FFT
  3d grid and FFT values/proc = 15625 5832
Generated 0 of 21 mixed pair_coeff terms from geometric mixing rule
Per MPI rank memory allocation (min/avg/max) = 9.773 | 9.773 | 9.773 Mbytes
   Step          Temp          E_pair         E_mol          TotEng         Press     
       137   3019.7787      1.7198147      1.6327777      4.1332665     -370.05363    
       138   3794.1752      1.7960115      1.3506798      4.1275626     -301.66144    
Loop time of 0.00293453 on 1 procs for 1 steps with 3 atoms

run 1 pre yes post no
PPPM initialization ...
  using 12-bit tables for long-range coulomb (src/kspace.cpp:342)
  G vector (1/distance) = 0.28934131
  grid = 18 18 18
  stencil order = 5
  estimated absolute RMS force accuracy = 7.7110449e-05
  estimated relative force accuracy = 5.3550243e-06
  using double precision KISS FFT
  3d grid and FFT values/proc = 15625 5832
Generated 0 of 21 mixed pair_coeff terms from geometric mixing rule
Per MPI rank memory allocation (min/avg/max) = 9.773 | 9.773 | 9.773 Mbytes
   Step          Temp          E_pair         E_mol          TotEng         Press     
       138   3794.1752      1.7960115      1.3506798      4.1275626     -301.66144    
       139   4588.0543      1.8763516      1.062363       4.1248198     -227.25427    
Loop time of 0.00288983 on 1 procs for 1 steps with 3 atoms

run 1 pre yes post no
PPPM initialization ...
  using 12-bit tables for long-range coulomb (src/kspace.cpp:342)
  G vector (1/distance) = 0.28934131
  grid = 18 18 18
  stencil order = 5
  estimated absolute RMS force accuracy = 7.7110449e-05
  estimated relative force accuracy = 5.3550243e-06
  using double precision KISS FFT
  3d grid and FFT values/proc = 15625 5832
Generated 0 of 21 mixed pair_coeff terms from geometric mixing rule
Per MPI rank memory allocation (min/avg/max) = 9.773 | 9.773 | 9.773 Mbytes
   Step          Temp          E_pair         E_mol          TotEng         Press     
       139   4588.0543      1.8763516      1.062363       4.1248198     -227.25427    
       140   5336.8662      1.9597098      0.78401754     4.1234156     -149.66915    
Loop time of 0.00326282 on 1 procs for 1 steps with 3 atoms

run 1 pre yes post no
PPPM initialization ...
  using 12-bit tables for long-range coulomb (src/kspace.cpp:342)
  G vector (1/distance) = 0.28934131
  grid = 18 18 18
  stencil order = 5
  estimated absolute RMS force accuracy = 7.7110449e-05
  estimated relative force accuracy = 5.3550243e-06
  using double precision KISS FFT
  3d grid and FFT values/proc = 15625 5832
Generated 0 of 21 mixed pair_coeff terms from geometric mixing rule
Per MPI rank memory allocation (min/avg/max) = 9.773 | 9.773 | 9.773 Mbytes
   Step          Temp          E_pair         E_mol          TotEng         Press     
       140   5336.8662      1.9597098      0.78401754     4.1234156     -149.66915    
       141   5982.1697      2.0448583      0.53116627     4.1225368     -71.715683    
Loop time of 0.00438717 on 1 procs for 1 steps with 3 atoms

run 1 pre yes post no
PPPM initialization ...
  using 12-bit tables for long-range coulomb (src/kspace.cpp:342)
  G vector (1/distance) = 0.28934131
  grid = 18 18 18
  stencil order = 5
  estimated absolute RMS force accuracy = 7.7110449e-05
  estimated relative force accuracy = 5.3550243e-06
  using double precision KISS FFT
  3d grid and FFT values/proc = 15625 5832
Generated 0 of 21 mixed pair_coeff terms from geometric mixing rule
Per MPI rank memory allocation (min/avg/max) = 9.773 | 9.773 | 9.773 Mbytes
   Step          Temp          E_pair         E_mol          TotEng         Press     
       141   5982.1697      2.0448583      0.53116627     4.1225368     -71.715683    
       142   6474.9778      2.1305424      0.31747135     4.1219269      3.9961361    
Loop time of 0.00395749 on 1 procs for 1 steps with 3 atoms

run 1 pre yes post no
PPPM initialization ...
  using 12-bit tables for long-range coulomb (src/kspace.cpp:342)
  G vector (1/distance) = 0.28934131
  grid = 18 18 18
  stencil order = 5
  estimated absolute RMS force accuracy = 7.7110449e-05
  estimated relative force accuracy = 5.3550243e-06
  using double precision KISS FFT
  3d grid and FFT values/proc = 15625 5832
Generated 0 of 21 mixed pair_coeff terms from geometric mixing rule
Per MPI rank memory allocation (min/avg/max) = 9.773 | 9.773 | 9.773 Mbytes
   Step          Temp          E_pair         E_mol          TotEng         Press     
       142   6474.9778      2.1305424      0.31747135     4.1219269      3.9961361    
       143   6777.9641      2.2155187      0.15378903     4.121549       75.182217    
Loop time of 0.00364086 on 1 procs for 1 steps with 3 atoms

run 1 pre yes post no
PPPM initialization ...
  using 12-bit tables for long-range coulomb (src/kspace.cpp:342)
  G vector (1/distance) = 0.28934131
  grid = 18 18 18
  stencil order = 5
  estimated absolute RMS force accuracy = 7.7110449e-05
  estimated relative force accuracy = 5.3550243e-06
  using double precision KISS FFT
  3d grid and FFT values/proc = 15625 5832
Generated 0 of 21 mixed pair_coeff terms from geometric mixing rule
Per MPI rank memory allocation (min/avg/max) = 9.773 | 9.773 | 9.773 Mbytes
   Step          Temp          E_pair         E_mol          TotEng         Press     
       143   6777.9641      2.2155187      0.15378903     4.121549       75.182217    
       144   6867.3909      2.2985903      0.047467246    4.1214175      139.98521    
Loop time of 0.00421552 on 1 procs for 1 steps with 3 atoms

run 1 pre yes post no
PPPM initialization ...
  using 12-bit tables for long-range coulomb (src/kspace.cpp:342)
  G vector (1/distance) = 0.28934131
  grid = 18 18 18
  stencil order = 5
  estimated absolute RMS force accuracy = 7.7110449e-05
  estimated relative force accuracy = 5.3550243e-06
  using double precision KISS FFT
  3d grid and FFT values/proc = 15625 5832
Generated 0 of 21 mixed pair_coeff terms from geometric mixing rule
Per MPI rank memory allocation (min/avg/max) = 9.773 | 9.773 | 9.773 Mbytes
   Step          Temp          E_pair         E_mol          TotEng         Press     
       144   6867.3909      2.2985903      0.047467246    4.1214175      139.98521    
       145   6734.5475      2.3786254      0.0018967923   4.1215393      197.04775    
Loop time of 0.00287023 on 1 procs for 1 steps with 3 atoms

run 1 pre yes post no
PPPM initialization ...
  using 12-bit tables for long-range coulomb (src/kspace.cpp:342)
  G vector (1/distance) = 0.28934131
  grid = 18 18 18
  stencil order = 5
  estimated absolute RMS force accuracy = 7.7110449e-05
  estimated relative force accuracy = 5.3550243e-06
  using double precision KISS FFT
  3d grid and FFT values/proc = 15625 5832
Generated 0 of 21 mixed pair_coeff terms from geometric mixing rule
Per MPI rank memory allocation (min/avg/max) = 9.773 | 9.773 | 9.773 Mbytes
   Step          Temp          E_pair         E_mol          TotEng         Press     
       145   6734.5475      2.3786254      0.0018967923   4.1215393      197.04775    
       146   6386.3175      2.4545795      0.016336007    4.1219081      245.55221    
Loop time of 0.00363707 on 1 procs for 1 steps with 3 atoms

run 1 pre yes post no
PPPM initialization ...
  using 12-bit tables for long-range coulomb (src/kspace.cpp:342)
  G vector (1/distance) = 0.28934131
  grid = 18 18 18
  stencil order = 5
  estimated absolute RMS force accuracy = 7.7110449e-05
  estimated relative force accuracy = 5.3550243e-06
  using double precision KISS FFT
  3d grid and FFT values/proc = 15625 5832
Generated 0 of 21 mixed pair_coeff terms from geometric mixing rule
Per MPI rank memory allocation (min/avg/max) = 9.773 | 9.773 | 9.773 Mbytes
   Step          Temp          E_pair         E_mol          TotEng         Press     
       146   6386.3175      2.4545795      0.016336007    4.1219081      245.55221    
       147   5844.715       2.5255038      0.08601814     4.1224993      285.22295    
Loop time of 0.00545285 on 1 procs for 1 steps with 3 atoms

run 1 pre yes post no
PPPM initialization ...
  using 12-bit tables for long-range coulomb (src/kspace.cpp:342)
  G vector (1/distance) = 0.28934131
  grid = 18 18 18
  stencil order = 5
  estimated absolute RMS force accuracy = 7.7110449e-05
  estimated relative force accuracy = 5.3550243e-06
  using double precision KISS FFT
  3d grid and FFT values/proc = 15625 5832
Generated 0 of 21 mixed pair_coeff terms from geometric mixing rule
Per MPI rank memory allocation (min/avg/max) = 9.773 | 9.773 | 9.773 Mbytes
   Step          Temp          E_pair         E_mol          TotEng         Press     
       147   5844.715       2.5255038      0.08601814     4.1224993      285.22295    
       148   5145.3889      2.5905513      0.20253305     4.1232718      316.29208    
Loop time of 0.00112701 on 1 procs for 1 steps with 3 atoms

run 1 pre yes post no
PPPM initialization ...
  using 12-bit tables for long-range coulomb (src/kspace.cpp:342)
  G vector (1/distance) = 0.28934131
  grid = 18 18 18
  stencil order = 5
  estimated absolute RMS force accuracy = 7.7110449e-05
  estimated relative force accuracy = 5.3550243e-06
  using double precision KISS FFT
  3d grid and FFT values/proc = 15625 5832
Generated 0 of 21 mixed pair_coeff terms from geometric mixing rule
Per MPI rank memory allocation (min/avg/max) = 9.773 | 9.773 | 9.773 Mbytes
   Step          Temp          E_pair         E_mol          TotEng         Press     
       148   5145.3889      2.5905513      0.20253305     4.1232718      316.29208    
       149   4335.196       2.6489819      0.35445625     4.1241743      339.43215    
Loop time of 0.00108448 on 1 procs for 1 steps with 3 atoms

run 1 pre yes post no
PPPM initialization ...
  using 12-bit tables for long-range coulomb (src/kspace.cpp:342)
  G vector (1/distance) = 0.28934131
  grid = 18 18 18
  stencil order = 5
  estimated absolute RMS force accuracy = 7.7110449e-05
  estimated relative force accuracy = 5.3550243e-06
  using double precision KISS FFT
  3d grid and FFT values/proc = 15625 5832
Generated 0 of 21 mixed pair_coeff terms from geometric mixing rule
Per MPI rank memory allocation (min/avg/max) = 9.773 | 9.773 | 9.773 Mbytes
   Step          Temp          E_pair         E_mol          TotEng         Press     
       149   4335.196       2.6489819      0.35445625     4.1241743      339.43215    
       150   3469.0054      2.7001557      0.52818165     4.1251456      355.66086    
Loop time of 0.00107888 on 1 procs for 1 steps with 3 atoms

run 1 pre yes post no
PPPM initialization ...
  using 12-bit tables for long-range coulomb (src/kspace.cpp:342)
  G vector (1/distance) = 0.28934131
  grid = 18 18 18
  stencil order = 5
  estimated absolute RMS force accuracy = 7.7110449e-05
  estimated relative force accuracy = 5.3550243e-06
  using double precision KISS FFT
  3d grid and FFT values/proc = 15625 5832
Generated 0 of 21 mixed pair_coeff terms from geometric mixing rule
Per MPI rank memory allocation (min/avg/max) = 9.773 | 9.773 | 9.773 Mbytes
   Step          Temp          E_pair         E_mol          TotEng         Press     
       150   3469.0054      2.7001557      0.52818165     4.1251456      355.66086    
       151   2605.9525      2.7435277      0.70890052     4.1261198      366.22577    
Loop time of 0.00114393 on 1 procs for 1 steps with 3 atoms

run 1 pre yes post no
PPPM initialization ...
  using 12-bit tables for long-range coulomb (src/kspace.cpp:342)
  G vector (1/distance) = 0.28934131
  grid = 18 18 18
  stencil order = 5
  estimated absolute RMS force accuracy = 7.7110449e-05
  estimated relative force accuracy = 5.3550243e-06
  using double precision KISS FFT
  3d grid and FFT values/proc = 15625 5832
Generated 0 of 21 mixed pair_coeff terms from geometric mixing rule
Per MPI rank memory allocation (min/avg/max) = 9.773 | 9.773 | 9.773 Mbytes
   Step          Temp          E_pair         E_mol          TotEng         Press     
       151   2605.9525      2.7435277      0.70890052     4.1261198      366.22577    
       152   1805.3964      2.7786402      0.88165952     4.1270314      372.47733    
Loop time of 0.0011093 on 1 procs for 1 steps with 3 atoms

run 1 pre yes post no
PPPM initialization ...
  using 12-bit tables for long-range coulomb (src/kspace.cpp:342)
  G vector (1/distance) = 0.28934131
  grid = 18 18 18
  stencil order = 5
  estimated absolute RMS force accuracy = 7.7110449e-05
  estimated relative force accuracy = 5.3550243e-06
  using double precision KISS FFT
  3d grid and FFT values/proc = 15625 5832
Generated 0 of 21 mixed pair_coeff terms from geometric mixing rule
Per MPI rank memory allocation (min/avg/max) = 9.773 | 9.773 | 9.773 Mbytes
   Step          Temp          E_pair         E_mol          TotEng         Press     
       152   1805.3964      2.7786402      0.88165952     4.1270314      372.47733    
       153   1122.8552      2.8051099      1.0324254      4.1278161      375.7395     
Loop time of 0.0010433 on 1 procs for 1 steps with 3 atoms

run 1 pre yes post no
PPPM initialization ...
  using 12-bit tables for long-range coulomb (src/kspace.cpp:342)
  G vector (1/distance) = 0.28934131
  grid = 18 18 18
  stencil order = 5
  estimated absolute RMS force accuracy = 7.7110449e-05
  estimated relative force accuracy = 5.3550243e-06
  using double precision KISS FFT
  3d grid and FFT values/proc = 15625 5832
Generated 0 of 21 mixed pair_coeff terms from geometric mixing rule
Per MPI rank memory allocation (min/avg/max) = 9.773 | 9.773 | 9.773 Mbytes
   Step          Temp          E_pair         E_mol          TotEng         Press     
       153   1122.8552      2.8051099      1.0324254      4.1278161      375.7395     
       154   606.19418      2.822624       1.1490836      4.1284211      377.18796    
Loop time of 0.00109067 on 1 procs for 1 steps with 3 atoms

run 1 pre yes post no
PPPM initialization ...
  using 12-bit tables for long-range coulomb (src/kspace.cpp:342)
  G vector (1/distance) = 0.28934131
  grid = 18 18 18
  stencil order = 5
  estimated absolute RMS force accuracy = 7.7110449e-05
  estimated relative force accuracy = 5.3550243e-06
  using double precision KISS FFT
  3d grid and FFT values/proc = 15625 5832
Generated 0 of 21 mixed pair_coeff terms from geometric mixing rule
Per MPI rank memory allocation (min/avg/max) = 9.773 | 9.773 | 9.773 Mbytes
   Step          Temp          E_pair         E_mol          TotEng         Press     
       154   606.19418      2.822624       1.1490836      4.1284211      377.18796    
       155   292.32861      2.8309297      1.2223028      4.1288053      377.74379    
Loop time of 0.00127838 on 1 procs for 1 steps with 3 atoms

run 1 pre yes post no
PPPM initialization ...
  using 12-bit tables for long-range coulomb (src/kspace.cpp:342)
  G vector (1/distance) = 0.28934131
  grid = 18 18 18
  stencil order = 5
  estimated absolute RMS force accuracy = 7.7110449e-05
  estimated relative force accuracy = 5.3550243e-06
  using double precision KISS FFT
  3d grid and FFT values/proc = 15625 5832
Generated 0 of 21 mixed pair_coeff terms from geometric mixing rule
Per MPI rank memory allocation (min/avg/max) = 9.773 | 9.773 | 9.773 Mbytes
   Step          Temp          E_pair         E_mol          TotEng         Press     
       155   292.32861      2.8309297      1.2223028      4.1288053      377.74379    
       156   204.66451      2.8298255      1.2462052      4.1289406      377.99104    
Loop time of 0.00114645 on 1 procs for 1 steps with 3 atoms

run 1 pre yes post no
PPPM initialization ...
  using 12-bit tables for long-range coulomb (src/kspace.cpp:342)
  G vector (1/distance) = 0.28934131
  grid = 18 18 18
  stencil order = 5
  estimated absolute RMS force accuracy = 7.7110449e-05
  estimated relative force accuracy = 5.3550243e-06
  using double precision KISS FFT
  3d grid and FFT values/proc = 15625 5832
Generated 0 of 21 mixed pair_coeff terms from geometric mixing rule
Per MPI rank memory allocation (min/avg/max) = 9.773 | 9.773 | 9.773 Mbytes
   Step          Temp          E_pair         E_mol          TotEng         Press     
       156   204.66451      2.8298255      1.2462052      4.1289406      377.99104    
       157   351.45684      2.8191613      1.2187973      4.1288173      378.12394    
Loop time of 0.00112003 on 1 procs for 1 steps with 3 atoms

run 1 pre yes post no
PPPM initialization ...
  using 12-bit tables for long-range coulomb (src/kspace.cpp:342)
  G vector (1/distance) = 0.28934131
  grid = 18 18 18
  stencil order = 5
  estimated absolute RMS force accuracy = 7.7110449e-05
  estimated relative force accuracy = 5.3550243e-06
  using double precision KISS FFT
  3d grid and FFT values/proc = 15625 5832
Generated 0 of 21 mixed pair_coeff terms from geometric mixing rule
Per MPI rank memory allocation (min/avg/max) = 9.773 | 9.773 | 9.773 Mbytes
   Step          Temp          E_pair         E_mol          TotEng         Press     
       157   351.45684      2.8191613      1.2187973      4.1288173      378.12394    
       158   725.20087      2.798835       1.1421288      4.128443       377.92769    
Loop time of 0.00110285 on 1 procs for 1 steps with 3 atoms

run 1 pre yes post no
PPPM initialization ...
  using 12-bit tables for long-range coulomb (src/kspace.cpp:342)
  G vector (1/distance) = 0.28934131
  grid = 18 18 18
  stencil order = 5
  estimated absolute RMS force accuracy = 7.7110449e-05
  estimated relative force accuracy = 5.3550243e-06
  using double precision KISS FFT
  3d grid and FFT values/proc = 15625 5832
Generated 0 of 21 mixed pair_coeff terms from geometric mixing rule
Per MPI rank memory allocation (min/avg/max) = 9.773 | 9.773 | 9.773 Mbytes
   Step          Temp          E_pair         E_mol          TotEng         Press     
       158   725.20087      2.798835       1.1421288      4.128443       377.92769    
       159   1303.104       2.768795       1.0221685      4.1278423      376.79435    
Loop time of 0.00143369 on 1 procs for 1 steps with 3 atoms

run 1 pre yes post no
PPPM initialization ...
  using 12-bit tables for long-range coulomb (src/kspace.cpp:342)
  G vector (1/distance) = 0.28934131
  grid = 18 18 18
  stencil order = 5
  estimated absolute RMS force accuracy = 7.7110449e-05
  estimated relative force accuracy = 5.3550243e-06
  using double precision KISS FFT
  3d grid and FFT values/proc = 15625 5832
Generated 0 of 21 mixed pair_coeff terms from geometric mixing rule
Per MPI rank memory allocation (min/avg/max) = 9.773 | 9.773 | 9.773 Mbytes
   Step          Temp          E_pair         E_mol          TotEng         Press     
       159   1303.104       2.768795       1.0221685      4.1278423      376.79435    
       160   2048.6107      2.7290456      0.8684027      4.1270558      373.77306    
Loop time of 0.00117365 on 1 procs for 1 steps with 3 atoms

run 1 pre yes post no
PPPM initialization ...
  using 12-bit tables for long-range coulomb (src/kspace.cpp:342)
  G vector (1/distance) = 0.28934131
  grid = 18 18 18
  stencil order = 5
  estimated absolute RMS force accuracy = 7.7110449e-05
  estimated relative force accuracy = 5.3550243e-06
  using double precision KISS FFT
  3d grid and FFT values/proc = 15625 5832
Generated 0 of 21 mixed pair_coeff terms from geometric mixing rule
Per MPI rank memory allocation (min/avg/max) = 9.773 | 9.773 | 9.773 Mbytes
   Step          Temp          E_pair         E_mol          TotEng         Press     
       160   2048.6107      2.7290456      0.8684027      4.1270558      373.77306    
       161   2913.8793      2.679656       0.69318372     4.1261367      367.65104    
Loop time of 0.00119755 on 1 procs for 1 steps with 3 atoms

run 1 pre yes post no
PPPM initialization ...
  using 12-bit tables for long-range coulomb (src/kspace.cpp:342)
  G vector (1/distance) = 0.28934131
  grid = 18 18 18
  stencil order = 5
  estimated absolute RMS force accuracy = 7.7110449e-05
  estimated relative force accuracy = 5.3550243e-06
  using double precision KISS FFT
  3d grid and FFT values/proc = 15625 5832
Generated 0 of 21 mixed pair_coeff terms from geometric mixing rule
Per MPI rank memory allocation (min/avg/max) = 9.773 | 9.773 | 9.773 Mbytes
   Step          Temp          E_pair         E_mol          TotEng         Press     
       161   2913.8793      2.679656       0.69318372     4.1261367      367.65104    
       162   3843.039       2.620772       0.51087161     4.1251471      357.0597     
Loop time of 0.00117949 on 1 procs for 1 steps with 3 atoms

run 1 pre yes post no
PPPM initialization ...
  using 12-bit tables for long-range coulomb (src/kspace.cpp:342)
  G vector (1/distance) = 0.28934131
  grid = 18 18 18
  stencil order = 5
  estimated absolute RMS force accuracy = 7.7110449e-05
  estimated relative force accuracy = 5.3550243e-06
  using double precision KISS FFT
  3d grid and FFT values/proc = 15625 5832
Generated 0 of 21 mixed pair_coeff terms from geometric mixing rule
Per MPI rank memory allocation (min/avg/max) = 9.773 | 9.773 | 9.773 Mbytes
   Step          Temp          E_pair         E_mol          TotEng         Press     
       162   3843.039       2.620772       0.51087161     4.1251471      357.0597     
       163   4776.0022      2.552632       0.33682871     4.1241542      340.59827    
Loop time of 0.00122837 on 1 procs for 1 steps with 3 atoms

run 1 pre yes post no
PPPM initialization ...
  using 12-bit tables for long-range coulomb (src/kspace.cpp:342)
  G vector (1/distance) = 0.28934131
  grid = 18 18 18
  stencil order = 5
  estimated absolute RMS force accuracy = 7.7110449e-05
  estimated relative force accuracy = 5.3550243e-06
  using double precision KISS FFT
  3d grid and FFT values/proc = 15625 5832
Generated 0 of 21 mixed pair_coeff terms from geometric mixing rule
Per MPI rank memory allocation (min/avg/max) = 9.773 | 9.773 | 9.773 Mbytes
   Step          Temp          E_pair         E_mol          TotEng         Press     
       163   4776.0022      2.552632       0.33682871     4.1241542      340.59827    
       164   5652.5615      2.4755871      0.18633664     4.1232256      316.96624    
Loop time of 0.00126339 on 1 procs for 1 steps with 3 atoms

run 1 pre yes post no
PPPM initialization ...
  using 12-bit tables for long-range coulomb (src/kspace.cpp:342)
  G vector (1/distance) = 0.28934131
  grid = 18 18 18
  stencil order = 5
  estimated absolute RMS force accuracy = 7.7110449e-05
  estimated relative force accuracy = 5.3550243e-06
  using double precision KISS FFT
  3d grid and FFT values/proc = 15625 5832
Generated 0 of 21 mixed pair_coeff terms from geometric mixing rule
Per MPI rank memory allocation (min/avg/max) = 9.773 | 9.773 | 9.773 Mbytes
   Step          Temp          E_pair         E_mol          TotEng         Press     
       164   5652.5615      2.4755871      0.18633664     4.1232256      316.96624    
       165   6416.4853      2.3901204      0.073511047    4.1224231      285.09453    
Loop time of 0.00131686 on 1 procs for 1 steps with 3 atoms

run 1 pre yes post no
PPPM initialization ...
  using 12-bit tables for long-range coulomb (src/kspace.cpp:342)
  G vector (1/distance) = 0.28934131
  grid = 18 18 18
  stencil order = 5
  estimated absolute RMS force accuracy = 7.7110449e-05
  estimated relative force accuracy = 5.3550243e-06
  using double precision KISS FFT
  3d grid and FFT values/proc = 15625 5832
Generated 0 of 21 mixed pair_coeff terms from geometric mixing rule
Per MPI rank memory allocation (min/avg/max) = 9.773 | 9.773 | 9.773 Mbytes
   Step          Temp          E_pair         E_mol          TotEng         Press     
       165   6416.4853      2.3901204      0.073511047    4.1224231      285.09453    
       166   7019.3236      2.2968722      0.0102894      4.1217992      244.26639    
Loop time of 0.00285112 on 1 procs for 1 steps with 3 atoms

run 1 pre yes post no
PPPM initialization ...
  using 12-bit tables for long-range coulomb (src/kspace.cpp:342)
  G vector (1/distance) = 0.28934131
  grid = 18 18 18
  stencil order = 5
  estimated absolute RMS force accuracy = 7.7110449e-05
  estimated relative force accuracy = 5.3550243e-06
  using double precision KISS FFT
  3d grid and FFT values/proc = 15625 5832
Generated 0 of 21 mixed pair_coeff terms from geometric mixing rule
Per MPI rank memory allocation (min/avg/max) = 9.773 | 9.773 | 9.773 Mbytes
   Step          Temp          E_pair         E_mol          TotEng         Press     
       166   7019.3236      2.2968722      0.0102894      4.1217992      244.26639    
       167   7423.6587      2.1966676      0.0055617286   4.1213957      194.21886    
Loop time of 0.00316242 on 1 procs for 1 steps with 3 atoms

run 1 pre yes post no
PPPM initialization ...
  using 12-bit tables for long-range coulomb (src/kspace.cpp:342)
  G vector (1/distance) = 0.28934131
  grid = 18 18 18
  stencil order = 5
  estimated absolute RMS force accuracy = 7.7110449e-05
  estimated relative force accuracy = 5.3550243e-06
  using double precision KISS FFT
  3d grid and FFT values/proc = 15625 5832
Generated 0 of 21 mixed pair_coeff terms from geometric mixing rule
Per MPI rank memory allocation (min/avg/max) = 9.773 | 9.773 | 9.773 Mbytes
   Step          Temp          E_pair         E_mol          TotEng         Press     
       167   7423.6587      2.1966676      0.0055617286   4.1213957      194.21886    
       168   7605.5814      2.0905367      0.064503563    4.1212374      135.2168     
Loop time of 0.00298394 on 1 procs for 1 steps with 3 atoms

run 1 pre yes post no
PPPM initialization ...
  using 12-bit tables for long-range coulomb (src/kspace.cpp:342)
  G vector (1/distance) = 0.28934131
  grid = 18 18 18
  stencil order = 5
  estimated absolute RMS force accuracy = 7.7110449e-05
  estimated relative force accuracy = 5.3550243e-06
  using double precision KISS FFT
  3d grid and FFT values/proc = 15625 5832
Generated 0 of 21 mixed pair_coeff terms from geometric mixing rule
Per MPI rank memory allocation (min/avg/max) = 9.773 | 9.773 | 9.773 Mbytes
   Step          Temp          E_pair         E_mol          TotEng         Press     
       168   7605.5814      2.0905367      0.064503563    4.1212374      135.2168     
       169   7556.2398      1.9797387      0.18815598     4.121336       68.09434     
Loop time of 0.00258869 on 1 procs for 1 steps with 3 atoms

run 1 pre yes post no
PPPM initialization ...
  using 12-bit tables for long-range coulomb (src/kspace.cpp:342)
  G vector (1/distance) = 0.28934131
  grid = 18 18 18
  stencil order = 5
  estimated absolute RMS force accuracy = 7.7110449e-05
  estimated relative force accuracy = 5.3550243e-06
  using double precision KISS FFT
  3d grid and FFT values/proc = 15625 5832
Generated 0 of 21 mixed pair_coeff terms from geometric mixing rule
Per MPI rank memory allocation (min/avg/max) = 9.773 | 9.773 | 9.773 Mbytes
   Step          Temp          E_pair         E_mol          TotEng         Press     
       169   7556.2398      1.9797387      0.18815598     4.121336       68.09434     
       170   7282.489       1.865776       0.3732804      4.1217275     -5.7390556    
Loop time of 0.00339871 on 1 procs for 1 steps with 3 atoms

run 1 pre yes post no
PPPM initialization ...
  using 12-bit tables for long-range coulomb (src/kspace.cpp:342)
  G vector (1/distance) = 0.28934131
  grid = 18 18 18
  stencil order = 5
  estimated absolute RMS force accuracy = 7.7110449e-05
  estimated relative force accuracy = 5.3550243e-06
  using double precision KISS FFT
  3d grid and FFT values/proc = 15625 5832
Generated 0 of 21 mixed pair_coeff terms from geometric mixing rule
Per MPI rank memory allocation (min/avg/max) = 9.773 | 9.773 | 9.773 Mbytes
   Step          Temp          E_pair         E_mol          TotEng         Press     
       170   7282.489       1.865776       0.3732804      4.1217275     -5.7390556    
       171   6807.3076      1.7503937      0.61250175     4.1227225     -84.31935     
Loop time of 0.00251588 on 1 procs for 1 steps with 3 atoms

run 1 pre yes post no
PPPM initialization ...
  using 12-bit tables for long-range coulomb (src/kspace.cpp:342)
  G vector (1/distance) = 0.28934131
  grid = 18 18 18
  stencil order = 5
  estimated absolute RMS force accuracy = 7.7110449e-05
  estimated relative force accuracy = 5.3550243e-06
  using double precision KISS FFT
  3d grid and FFT values/proc = 15625 5832
Generated 0 of 21 mixed pair_coeff terms from geometric mixing rule
Per MPI rank memory allocation (min/avg/max) = 9.773 | 9.773 | 9.773 Mbytes
   Step          Temp          E_pair         E_mol          TotEng         Press     
       171   6807.3076      1.7503937      0.61250175     4.1227225     -84.31935     
       172   6172.0318      1.6355483      0.89477011     4.1259138     -165.15014    
Loop time of 0.00262819 on 1 procs for 1 steps with 3 atoms

run 1 pre yes post no
PPPM initialization ...
  using 12-bit tables for long-range coulomb (src/kspace.cpp:342)
  G vector (1/distance) = 0.28934131
  grid = 18 18 18
  stencil order = 5
  estimated absolute RMS force accuracy = 7.7110449e-05
  estimated relative force accuracy = 5.3550243e-06
  using double precision KISS FFT
  3d grid and FFT values/proc = 15625 5832
Generated 0 of 21 mixed pair_coeff terms from geometric mixing rule
Per MPI rank memory allocation (min/avg/max) = 9.773 | 9.773 | 9.773 Mbytes
   Step          Temp          E_pair         E_mol          TotEng         Press     
       172   6172.0318      1.6355483      0.89477011     4.1259138     -165.15014    
       173   5441.9658      1.5232845      1.2062946      4.1364377     -245.23064    
Loop time of 0.00254429 on 1 procs for 1 steps with 3 atoms

run 1 pre yes post no
PPPM initialization ...
  using 12-bit tables for long-range coulomb (src/kspace.cpp:342)
  G vector (1/distance) = 0.28934131
  grid = 18 18 18
  stencil order = 5
  estimated absolute RMS force accuracy = 7.7110449e-05
  estimated relative force accuracy = 5.3550243e-06
  using double precision KISS FFT
  3d grid and FFT values/proc = 15625 5832
Generated 0 of 21 mixed pair_coeff terms from geometric mixing rule
Per MPI rank memory allocation (min/avg/max) = 9.773 | 9.773 | 9.773 Mbytes
   Step          Temp          E_pair         E_mol          TotEng         Press     
       173   5441.9658      1.5232845      1.2062946      4.1364377     -245.23064    
       174   4709.3432      1.415428       1.5323104      4.1651992     -321.24234    
Loop time of 0.00252818 on 1 procs for 1 steps with 3 atoms

run 1 pre yes post no
PPPM initialization ...
  using 12-bit tables for long-range coulomb (src/kspace.cpp:342)
  G vector (1/distance) = 0.28934131
  grid = 18 18 18
  stencil order = 5
  estimated absolute RMS force accuracy = 7.7110449e-05
  estimated relative force accuracy = 5.3550243e-06
  using double precision KISS FFT
  3d grid and FFT values/proc = 15625 5832
Generated 0 of 21 mixed pair_coeff terms from geometric mixing rule
Per MPI rank memory allocation (min/avg/max) = 9.773 | 9.773 | 9.773 Mbytes
   Step          Temp          E_pair         E_mol          TotEng         Press     
       174   4709.3432      1.415428       1.5323104      4.1651992     -321.24234    
       175   4080.3151      1.3131117      1.8598746      4.2278306     -390.11425    
Loop time of 0.00264772 on 1 procs for 1 steps with 3 atoms

run 1 pre yes post no
PPPM initialization ...
  using 12-bit tables for long-range coulomb (src/kspace.cpp:342)
  G vector (1/distance) = 0.28934131
  grid = 18 18 18
  stencil order = 5
  estimated absolute RMS force accuracy = 7.7110449e-05
  estimated relative force accuracy = 5.3550243e-06
  using double precision KISS FFT
  3d grid and FFT values/proc = 15625 5832
Generated 0 of 21 mixed pair_coeff terms from geometric mixing rule
Per MPI rank memory allocation (min/avg/max) = 9.773 | 9.773 | 9.773 Mbytes
   Step          Temp          E_pair         E_mol          TotEng         Press     
       175   4080.3151      1.3131117      1.8598746      4.2278306     -390.11425    
       176   3644.6495      1.2163866      2.1809376      4.3395401     -449.83127    
Loop time of 0.00280668 on 1 procs for 1 steps with 3 atoms

run 1 pre yes post no
PPPM initialization ...
  using 12-bit tables for long-range coulomb (src/kspace.cpp:342)
  G vector (1/distance) = 0.28934131
  grid = 18 18 18
  stencil order = 5
  estimated absolute RMS force accuracy = 7.7110449e-05
  estimated relative force accuracy = 5.3550243e-06
  using double precision KISS FFT
  3d grid and FFT values/proc = 15625 5832
Generated 0 of 21 mixed pair_coeff terms from geometric mixing rule
Per MPI rank memory allocation (min/avg/max) = 9.773 | 9.773 | 9.773 Mbytes
   Step          Temp          E_pair         E_mol          TotEng         Press     
       176   3644.6495      1.2163866      2.1809376      4.3395401     -449.83127    
       177   3447.5628      1.1242848      2.4940639      4.5096136     -499.92394    
Loop time of 0.00262144 on 1 procs for 1 steps with 3 atoms

run 1 pre yes post no
PPPM initialization ...
  using 12-bit tables for long-range coulomb (src/kspace.cpp:342)
  G vector (1/distance) = 0.28934131
  grid = 18 18 18
  stencil order = 5
  estimated absolute RMS force accuracy = 7.7110449e-05
  estimated relative force accuracy = 5.3550243e-06
  using double precision KISS FFT
  3d grid and FFT values/proc = 15625 5832
Generated 0 of 21 mixed pair_coeff terms from geometric mixing rule
Per MPI rank memory allocation (min/avg/max) = 9.773 | 9.773 | 9.773 Mbytes
   Step          Temp          E_pair         E_mol          TotEng         Press     
       177   3447.5628      1.1242848      2.4940639      4.5096136     -499.92394    
       178   3483.2784      1.0355279      2.8036004      4.7396265     -541.20641    
Loop time of 0.00340023 on 1 procs for 1 steps with 3 atoms

run 1 pre yes post no
PPPM initialization ...
  using 12-bit tables for long-range coulomb (src/kspace.cpp:342)
  G vector (1/distance) = 0.28934131
  grid = 18 18 18
  stencil order = 5
  estimated absolute RMS force accuracy = 7.7110449e-05
  estimated relative force accuracy = 5.3550243e-06
  using double precision KISS FFT
  3d grid and FFT values/proc = 15625 5832
Generated 0 of 21 mixed pair_coeff terms from geometric mixing rule
Per MPI rank memory allocation (min/avg/max) = 9.773 | 9.773 | 9.773 Mbytes
   Step          Temp          E_pair         E_mol          TotEng         Press     
       178   3483.2784      1.0355279      2.8036004      4.7396265     -541.20641    
       179   3715.2475      0.94961213     3.1170009      5.0270799     -574.86258    
Loop time of 0.0027945 on 1 procs for 1 steps with 3 atoms

run 0 pre yes post no
PPPM initialization ...
  using 12-bit tables for long-range coulomb (src/kspace.cpp:342)
  G vector (1/distance) = 0.28934131
  grid = 18 18 18
  stencil order = 5
  estimated absolute RMS force accuracy = 7.7110449e-05
  estimated relative force accuracy = 5.3550243e-06
  using double precision KISS FFT
  3d grid and FFT values/proc = 15625 5832
Generated 0 of 21 mixed pair_coeff terms from geometric mixing rule
Per MPI rank memory allocation (min/avg/max) = 9.773 | 9.773 | 9.773 Mbytes
   Step          Temp          E_pair         E_mol          TotEng         Press     
       179   3715.2475      0.94961213     3.1170009      5.0270799     -574.86258    
Loop time of 9.12e-07 on 1 procs for 0 steps with 3 atoms

run 0 pre yes post no
PPPM initialization ...
  using 12-bit tables for long-range coulomb (src/kspace.cpp:342)
  G vector (1/distance) = 0.28934131
  grid = 18 18 18
  stencil order = 5
  estimated absolute RMS force accuracy = 7.7110449e-05
  estimated relative force accuracy = 5.3550243e-06
  using double precision KISS FFT
  3d grid and FFT values/proc = 15625 5832
Generated 0 of 21 mixed pair_coeff terms from geometric mixing rule
Per MPI rank memory allocation (min/avg/max) = 9.773 | 9.773 | 9.773 Mbytes
   Step          Temp          E_pair         E_mol          TotEng         Press     
       179   3715.2475      0.94961213     3.1170009      5.0270799     -574.86258    
Loop time of 5.71e-07 on 1 procs for 0 steps with 3 atoms

clear
OMP_NUM_THREADS environment is not set. Defaulting to 1 thread. (src/comm.cpp:98)
  using 1 OpenMP thread(s) per MPI task
units metal
atom_style full
boundary p p p
read_data /tmp/mustard.1db41283f1a74d1b97c38b9120794fbd
Reading data file ...
  triclinic box = (0 0 0) to (25.319 25.319 25.319) with tilt (0 0 0)
  1 by 1 by 1 MPI processor grid
  reading atoms ...
  3 atoms
  reading velocities ...
  3 velocities
  scanning bonds ...
  1 = max bonds/atom
  reading bonds ...
  1 bonds
Finding 1-2 1-3 1-4 neighbors ...
  special bond factors lj:    0        0        0       
  special bond factors coul:  0        0        0       
     1 = max # of 1-2 neighbors
     0 = max # of 1-3 neighbors
     0 = max # of 1-4 neighbors
     1 = max # of special neighbors
  special bonds CPU = 0.000 seconds
  read_data CPU = 0.001 seconds

change_box all triclinic
Changing box ...
  triclinic box = (0 0 0) to (25.319 25.319 25.319) with tilt (0 0 0)
include ff.lmp
##############################################################################################
#### Atoms' types - mass - charge
##############################################################################################
#@ 7   atom types

variable Ba  equal 1
variable Zr  equal 2
variable  Y  equal 3
variable O1  equal 4
variable O2  equal 5
variable O3  equal 6
variable H1  equal 7

##############################################################################################
#### Atoms' masses
##############################################################################################

mass  ${Ba}   137.327
mass  1   137.327
mass  ${Zr}    91.224
mass  2    91.224
mass  ${Y}     88.910
mass  3     88.910
mass  ${O1}    100000
mass  4    100000
# mass  ${O1}    15.996
mass  ${O2}    100000
mass  5    100000
# mass  ${O2}    15.996
mass  ${O3}    15.996
mass  6    15.996
mass  ${H1}     1.008
mass  7     1.008

##############################################################################################
#### Atoms' charges
##############################################################################################

set type ${Ba}  charge     2.000000
set type 1  charge     2.000000
Setting atom values ...
  0 settings made for charge
set type ${Zr}  charge     4.000000
set type 2  charge     4.000000
Setting atom values ...
  0 settings made for charge
set type ${Y}   charge     3.000000
set type 3   charge     3.000000
Setting atom values ...
  0 settings made for charge
set type ${O1}  charge    -1.308698
set type 4  charge    -1.308698
Setting atom values ...
  1 settings made for charge
set type ${O2}  charge    -2.000000
set type 5  charge    -2.000000
Setting atom values ...
  1 settings made for charge
set type ${O3}  charge    -2.000000
set type 6  charge    -2.000000
Setting atom values ...
  0 settings made for charge
set type ${H1}  charge     0.308698
set type 7  charge     0.308698
Setting atom values ...
  1 settings made for charge

##############################################################################################
#### Covalent bonds parameters
##############################################################################################
#@  1   bond types

bond_style harmonic
#@ O1 - H1
# bond_coeff   1      11.504000      0.985357
bond_coeff   1      23.008000      0.985357

##############################################################################################
# Pair potentials
##############################################################################################

variable rmin  equal  8.
variable rmax  equal 10.

pair_style hybrid/overlay buck/mdf ${rmin} ${rmax} lennard/mdf ${rmin} ${rmax} coul/long ${rmax}
pair_style hybrid/overlay buck/mdf 8 ${rmax} lennard/mdf ${rmin} ${rmax} coul/long ${rmax}
pair_style hybrid/overlay buck/mdf 8 10 lennard/mdf ${rmin} ${rmax} coul/long ${rmax}
pair_style hybrid/overlay buck/mdf 8 10 lennard/mdf 8 ${rmax} coul/long ${rmax}
pair_style hybrid/overlay buck/mdf 8 10 lennard/mdf 8 10 coul/long ${rmax}
pair_style hybrid/overlay buck/mdf 8 10 lennard/mdf 8 10 coul/long 10

##############################################################################################
# Buckingham interaction potentials
pair_coeff  ${Ba}  ${O1}  buck/mdf   688.21662   0.392014   0.000
pair_coeff  1  ${O1}  buck/mdf   688.21662   0.392014   0.000
pair_coeff  1  4  buck/mdf   688.21662   0.392014   0.000
pair_coeff  ${Ba}  ${O2}  buck/mdf   972.19945   0.392014   0.000
pair_coeff  1  ${O2}  buck/mdf   972.19945   0.392014   0.000
pair_coeff  1  5  buck/mdf   972.19945   0.392014   0.000
pair_coeff  ${Ba}  ${O3}  buck/mdf   972.19945   0.392014   0.000
pair_coeff  1  ${O3}  buck/mdf   972.19945   0.392014   0.000
pair_coeff  1  6  buck/mdf   972.19945   0.392014   0.000

pair_coeff  ${Y}   ${O1}  buck/mdf   2972.3808   0.267317   0.000
pair_coeff  3   ${O1}  buck/mdf   2972.3808   0.267317   0.000
pair_coeff  3   4  buck/mdf   2972.3808   0.267317   0.000
pair_coeff  ${Y}   ${O2}  buck/mdf   4121.8373   0.280386   0.000
pair_coeff  3   ${O2}  buck/mdf   4121.8373   0.280386   0.000
pair_coeff  3   5  buck/mdf   4121.8373   0.280386   0.000
pair_coeff  ${Y}   ${O3}  buck/mdf   4121.8373   0.280386   0.000
pair_coeff  3   ${O3}  buck/mdf   4121.8373   0.280386   0.000
pair_coeff  3   6  buck/mdf   4121.8373   0.280386   0.000

pair_coeff  ${Zr}  ${O1}  buck/mdf   2195.8712   0.298760   0.000
pair_coeff  2  ${O1}  buck/mdf   2195.8712   0.298760   0.000
pair_coeff  2  4  buck/mdf   2195.8712   0.298760   0.000
pair_coeff  ${Zr}  ${O2}  buck/mdf   3250.8545   0.298760   0.000
pair_coeff  2  ${O2}  buck/mdf   3250.8545   0.298760   0.000
pair_coeff  2  5  buck/mdf   3250.8545   0.298760   0.000
pair_coeff  ${Zr}  ${O3}  buck/mdf   3250.8545   0.298760   0.000
pair_coeff  2  ${O3}  buck/mdf   3250.8545   0.298760   0.000
pair_coeff  2  6  buck/mdf   3250.8545   0.298760   0.000

pair_coeff  ${O1}  ${O1}  buck/mdf   22764.000   0.149000   0.000
pair_coeff  4  ${O1}  buck/mdf   22764.000   0.149000   0.000
pair_coeff  4  4  buck/mdf   22764.000   0.149000   0.000
pair_coeff  ${O1}  ${O2}  buck/mdf   22764.000   0.149000   0.000
pair_coeff  4  ${O2}  buck/mdf   22764.000   0.149000   0.000
pair_coeff  4  5  buck/mdf   22764.000   0.149000   0.000
pair_coeff  ${O1}  ${O3}  buck/mdf   22764.000   0.149000   0.000
pair_coeff  4  ${O3}  buck/mdf   22764.000   0.149000   0.000
pair_coeff  4  6  buck/mdf   22764.000   0.149000   0.000

pair_coeff  ${O2}  ${O2}  buck/mdf   22764.000   0.149000   0.000
pair_coeff  5  ${O2}  buck/mdf   22764.000   0.149000   0.000
pair_coeff  5  5  buck/mdf   22764.000   0.149000   0.000
pair_coeff  ${O2}  ${O3}  buck/mdf   22764.000   0.149000   0.000
pair_coeff  5  ${O3}  buck/mdf   22764.000   0.149000   0.000
pair_coeff  5  6  buck/mdf   22764.000   0.149000   0.000

pair_coeff  ${O3}  ${O3}  buck/mdf   22764.000   0.149000   0.000
pair_coeff  6  ${O3}  buck/mdf   22764.000   0.149000   0.000
pair_coeff  6  6  buck/mdf   22764.000   0.149000   0.000

##############################################################################################
# 12-6 Lennard-Jones potentials
pair_coeff  ${O1}  ${H1}  lennard/mdf    6.391   0.000
pair_coeff  4  ${H1}  lennard/mdf    6.391   0.000
pair_coeff  4  7  lennard/mdf    6.391   0.000
pair_coeff  ${O2}  ${H1}  lennard/mdf    6.391   0.000
pair_coeff  5  ${H1}  lennard/mdf    6.391   0.000
pair_coeff  5  7  lennard/mdf    6.391   0.000
pair_coeff  ${O3}  ${H1}  lennard/mdf    7.800   0.000
pair_coeff  6  ${H1}  lennard/mdf    7.800   0.000
pair_coeff  6  7  lennard/mdf    7.800   0.000

##############################################################################################
# Coulombic interaction
pair_coeff      *      *  coul/long

#########################################################################################################
# Parameters for reciprocal space electrostatics
#########################################################################################################

kspace_style pppm 1.0e-5
kspace_modify fftbench no
fix md all nve
timestep 0.0002

change_box all x final 0.0 25.319 y final 0.0 25.319 z final 0.0 25.319 xy final 0.0 xz final 0.0 yz final 0.0
Changing box ...
  triclinic box = (0 0 0) to (25.319 25.319 25.319) with tilt (0 0 0)
  triclinic box = (0 0 0) to (25.319 25.319 25.319) with tilt (0 0 0)
  triclinic box = (0 0 0) to (25.319 25.319 25.319) with tilt (0 0 0)
  triclinic box = (0 0 0) to (25.319 25.319 25.319) with tilt (0 0 0)
  triclinic box = (0 0 0) to (25.319 25.319 25.319) with tilt (0 0 0)
  triclinic box = (0 0 0) to (25.319 25.319 25.319) with tilt (0 0 0)
fix ux all store/state 1 xu yu zu
fix ext all external pf/callback 1 1
fix_modify ext energy no
fix_modify ext virial no
compute get_pe all pe

run 0 pre yes post no
PPPM initialization ...
WARNING: System is not charge neutral, net charge = -3 (src/kspace.cpp:327)
  using 12-bit tables for long-range coulomb (src/kspace.cpp:342)
  G vector (1/distance) = 0.28934131
  grid = 18 18 18
  stencil order = 5
  estimated absolute RMS force accuracy = 7.7110449e-05
  estimated relative force accuracy = 5.3550243e-06
  using double precision KISS FFT
  3d grid and FFT values/proc = 15625 5832
Generated 0 of 21 mixed pair_coeff terms from geometric mixing rule
Neighbor list info ...
  update: every = 1 steps, delay = 0 steps, check = yes
  max neighbors/atom: 2000, page size: 100000
  master list distance cutoff = 12
  ghost atom cutoff = 12
  binsize = 6, bins = 5 5 5
  3 neighbor lists, perpetual/occasional/extra = 3 0 0
  (1) pair buck/mdf, perpetual, skip from (3)
      attributes: half, newton on
      pair build: skip
      stencil: none
      bin: none
  (2) pair lennard/mdf, perpetual, skip from (3)
      attributes: half, newton on
      pair build: skip
      stencil: none
      bin: none
  (3) pair coul/long, perpetual
      attributes: half, newton on
      pair build: half/bin/newton/tri
      stencil: half/bin/3d/tri
      bin: standard
Per MPI rank memory allocation (min/avg/max) = 9.773 | 9.773 | 9.773 Mbytes
   Step          Temp          E_pair         E_mol          TotEng         Press     
         0   3562.0792      0.99669381     2.8797716      4.7973351     -547.31238    
Loop time of 8.22e-07 on 1 procs for 0 steps with 3 atoms

run 0 pre yes post no
PPPM initialization ...
  using 12-bit tables for long-range coulomb (src/kspace.cpp:342)
  G vector (1/distance) = 0.28934131
  grid = 18 18 18
  stencil order = 5
  estimated absolute RMS force accuracy = 7.7110449e-05
  estimated relative force accuracy = 5.3550243e-06
  using double precision KISS FFT
  3d grid and FFT values/proc = 15625 5832
Generated 0 of 21 mixed pair_coeff terms from geometric mixing rule
Per MPI rank memory allocation (min/avg/max) = 9.773 | 9.773 | 9.773 Mbytes
   Step          Temp          E_pair         E_mol          TotEng         Press     
         0   3562.0792      0.99669381     2.8797716      4.7973351     -547.31238    
Loop time of 4.22e-07 on 1 procs for 0 steps with 3 atoms

run 1 pre yes post no
PPPM initialization ...
  using 12-bit tables for long-range coulomb (src/kspace.cpp:342)
  G vector (1/distance) = 0.28934131
  grid = 18 18 18
  stencil order = 5
  estimated absolute RMS force accuracy = 7.7110449e-05
  estimated relative force accuracy = 5.3550243e-06
  using double precision KISS FFT
  3d grid and FFT values/proc = 15625 5832
Generated 0 of 21 mixed pair_coeff terms from geometric mixing rule
Per MPI rank memory allocation (min/avg/max) = 9.773 | 9.773 | 9.773 Mbytes
   Step          Temp          E_pair         E_mol          TotEng         Press     
         0   3715.2475      0.99669381     2.8797716      4.8369323     -544.70656    
         1   4110.4829      1.0606505      2.4646876      4.5879814     -478.37365    
Loop time of 0.00345462 on 1 procs for 1 steps with 3 atoms

run 1 pre yes post no
PPPM initialization ...
  using 12-bit tables for long-range coulomb (src/kspace.cpp:342)
  G vector (1/distance) = 0.28934131
  grid = 18 18 18
  stencil order = 5
  estimated absolute RMS force accuracy = 7.7110449e-05
  estimated relative force accuracy = 5.3550243e-06
  using double precision KISS FFT
  3d grid and FFT values/proc = 15625 5832
Generated 0 of 21 mixed pair_coeff terms from geometric mixing rule
Per MPI rank memory allocation (min/avg/max) = 9.773 | 9.773 | 9.773 Mbytes
   Step          Temp          E_pair         E_mol          TotEng         Press     
         1   4110.4829      1.0606505      2.4646876      4.5879814     -478.37365    
         2   4657.8567      1.1278145      2.0651409      4.3971058     -407.19298    
Loop time of 0.00286651 on 1 procs for 1 steps with 3 atoms

run 1 pre yes post no
PPPM initialization ...
  using 12-bit tables for long-range coulomb (src/kspace.cpp:342)
  G vector (1/distance) = 0.28934131
  grid = 18 18 18
  stencil order = 5
  estimated absolute RMS force accuracy = 7.7110449e-05
  estimated relative force accuracy = 5.3550243e-06
  using double precision KISS FFT
  3d grid and FFT values/proc = 15625 5832
Generated 0 of 21 mixed pair_coeff terms from geometric mixing rule
Per MPI rank memory allocation (min/avg/max) = 9.773 | 9.773 | 9.773 Mbytes
   Step          Temp          E_pair         E_mol          TotEng         Press     
         2   4657.8567      1.1278145      2.0651409      4.3971058     -407.19298    
         3   5351.0096      1.2000198      1.6803061      4.2636705     -330.9033     
Loop time of 0.00303127 on 1 procs for 1 steps with 3 atoms

run 1 pre yes post no
PPPM initialization ...
  using 12-bit tables for long-range coulomb (src/kspace.cpp:342)
  G vector (1/distance) = 0.28934131
  grid = 18 18 18
  stencil order = 5
  estimated absolute RMS force accuracy = 7.7110449e-05
  estimated relative force accuracy = 5.3550243e-06
  using double precision KISS FFT
  3d grid and FFT values/proc = 15625 5832
Generated 0 of 21 mixed pair_coeff terms from geometric mixing rule
Per MPI rank memory allocation (min/avg/max) = 9.773 | 9.773 | 9.773 Mbytes
   Step          Temp          E_pair         E_mol          TotEng         Press     
         3   5351.0096      1.2000198      1.6803061      4.2636705     -330.9033     
         4   6154.6722      1.2790018      1.312826       4.1829354     -249.88495    
Loop time of 0.00313339 on 1 procs for 1 steps with 3 atoms

run 1 pre yes post no
PPPM initialization ...
  using 12-bit tables for long-range coulomb (src/kspace.cpp:342)
  G vector (1/distance) = 0.28934131
  grid = 18 18 18
  stencil order = 5
  estimated absolute RMS force accuracy = 7.7110449e-05
  estimated relative force accuracy = 5.3550243e-06
  using double precision KISS FFT
  3d grid and FFT values/proc = 15625 5832
Generated 0 of 21 mixed pair_coeff terms from geometric mixing rule
Per MPI rank memory allocation (min/avg/max) = 9.773 | 9.773 | 9.773 Mbytes
   Step          Temp          E_pair         E_mol          TotEng         Press     
         4   6154.6722      1.2790018      1.312826       4.1829354     -249.88495    
         5   6989.4719      1.3655692      0.97019405     4.1426836     -165.81306    
Loop time of 0.00268721 on 1 procs for 1 steps with 3 atoms

run 1 pre yes post no
PPPM initialization ...
  using 12-bit tables for long-range coulomb (src/kspace.cpp:342)
  G vector (1/distance) = 0.28934131
  grid = 18 18 18
  stencil order = 5
  estimated absolute RMS force accuracy = 7.7110449e-05
  estimated relative force accuracy = 5.3550243e-06
  using double precision KISS FFT
  3d grid and FFT values/proc = 15625 5832
Generated 0 of 21 mixed pair_coeff terms from geometric mixing rule
Per MPI rank memory allocation (min/avg/max) = 9.773 | 9.773 | 9.773 Mbytes
   Step          Temp          E_pair         E_mol          TotEng         Press     
         5   6989.4719      1.3655692      0.97019405     4.1426836     -165.81306    
         6   7751.071       1.4591692      0.66384441     4.1268227     -81.488905    
Loop time of 0.00286501 on 1 procs for 1 steps with 3 atoms

run 1 pre yes post no
PPPM initialization ...
  using 12-bit tables for long-range coulomb (src/kspace.cpp:342)
  G vector (1/distance) = 0.28934131
  grid = 18 18 18
  stencil order = 5
  estimated absolute RMS force accuracy = 7.7110449e-05
  estimated relative force accuracy = 5.3550243e-06
  using double precision KISS FFT
  3d grid and FFT values/proc = 15625 5832
Generated 0 of 21 mixed pair_coeff terms from geometric mixing rule
Per MPI rank memory allocation (min/avg/max) = 9.773 | 9.773 | 9.773 Mbytes
   Step          Temp          E_pair         E_mol          TotEng         Press     
         6   7751.071       1.4591692      0.66384441     4.1268227     -81.488905    
         7   8346.3546      1.558088       0.40621136     4.1220014     -0.034154935  
Loop time of 0.00280464 on 1 procs for 1 steps with 3 atoms

run 1 pre yes post no
PPPM initialization ...
  using 12-bit tables for long-range coulomb (src/kspace.cpp:342)
  G vector (1/distance) = 0.28934131
  grid = 18 18 18
  stencil order = 5
  estimated absolute RMS force accuracy = 7.7110449e-05
  estimated relative force accuracy = 5.3550243e-06
  using double precision KISS FFT
  3d grid and FFT values/proc = 15625 5832
Generated 0 of 21 mixed pair_coeff terms from geometric mixing rule
Per MPI rank memory allocation (min/avg/max) = 9.773 | 9.773 | 9.773 Mbytes
   Step          Temp          E_pair         E_mol          TotEng         Press     
         7   8346.3546      1.558088       0.40621136     4.1220014     -0.034154935  
         8   8716.0135      1.6599746      0.20765925     4.1209002      75.839851    
Loop time of 0.00398465 on 1 procs for 1 steps with 3 atoms

run 1 pre yes post no
PPPM initialization ...
  using 12-bit tables for long-range coulomb (src/kspace.cpp:342)
  G vector (1/distance) = 0.28934131
  grid = 18 18 18
  stencil order = 5
  estimated absolute RMS force accuracy = 7.7110449e-05
  estimated relative force accuracy = 5.3550243e-06
  using double precision KISS FFT
  3d grid and FFT values/proc = 15625 5832
Generated 0 of 21 mixed pair_coeff terms from geometric mixing rule
Per MPI rank memory allocation (min/avg/max) = 9.773 | 9.773 | 9.773 Mbytes
   Step          Temp          E_pair         E_mol          TotEng         Press     
         8   8716.0135      1.6599746      0.20765925     4.1209002      75.839851    
         9   8834.7245      1.7623263      0.074576617    4.1208585      144.11633    
Loop time of 0.00316344 on 1 procs for 1 steps with 3 atoms

run 1 pre yes post no
PPPM initialization ...
  using 12-bit tables for long-range coulomb (src/kspace.cpp:342)
  G vector (1/distance) = 0.28934131
  grid = 18 18 18
  stencil order = 5
  estimated absolute RMS force accuracy = 7.7110449e-05
  estimated relative force accuracy = 5.3550243e-06
  using double precision KISS FFT
  3d grid and FFT values/proc = 15625 5832
Generated 0 of 21 mixed pair_coeff terms from geometric mixing rule
Per MPI rank memory allocation (min/avg/max) = 9.773 | 9.773 | 9.773 Mbytes
   Step          Temp          E_pair         E_mol          TotEng         Press     
         9   8834.7245      1.7623263      0.074576617    4.1208585      144.11633    
        10   8702.7849      1.8627529      0.0086237683   4.1212231      203.47974    
Loop time of 0.0027584 on 1 procs for 1 steps with 3 atoms

run 1 pre yes post no
PPPM initialization ...
  using 12-bit tables for long-range coulomb (src/kspace.cpp:342)
  G vector (1/distance) = 0.28934131
  grid = 18 18 18
  stencil order = 5
  estimated absolute RMS force accuracy = 7.7110449e-05
  estimated relative force accuracy = 5.3550243e-06
  using double precision KISS FFT
  3d grid and FFT values/proc = 15625 5832
Generated 0 of 21 mixed pair_coeff terms from geometric mixing rule
Per MPI rank memory allocation (min/avg/max) = 9.773 | 9.773 | 9.773 Mbytes
   Step          Temp          E_pair         E_mol          TotEng         Press     
        10   8702.7849      1.8627529      0.0086237683   4.1212231      203.47974    
        11   8340.1188      1.9591055      0.0066676393   4.1218631      253.27309    
Loop time of 0.00293104 on 1 procs for 1 steps with 3 atoms

run 1 pre yes post no
PPPM initialization ...
  using 12-bit tables for long-range coulomb (src/kspace.cpp:342)
  G vector (1/distance) = 0.28934131
  grid = 18 18 18
  stencil order = 5
  estimated absolute RMS force accuracy = 7.7110449e-05
  estimated relative force accuracy = 5.3550243e-06
  using double precision KISS FFT
  3d grid and FFT values/proc = 15625 5832
Generated 0 of 21 mixed pair_coeff terms from geometric mixing rule
Per MPI rank memory allocation (min/avg/max) = 9.773 | 9.773 | 9.773 Mbytes
   Step          Temp          E_pair         E_mol          TotEng         Press     
        11   8340.1188      1.9591055      0.0066676393   4.1218631      253.27309    
        12   7782.9886      2.0495365      0.061129606    4.1227266      293.45312    
Loop time of 0.00368768 on 1 procs for 1 steps with 3 atoms

run 1 pre yes post no
PPPM initialization ...
  using 12-bit tables for long-range coulomb (src/kspace.cpp:342)
  G vector (1/distance) = 0.28934131
  grid = 18 18 18
  stencil order = 5
  estimated absolute RMS force accuracy = 7.7110449e-05
  estimated relative force accuracy = 5.3550243e-06
  using double precision KISS FFT
  3d grid and FFT values/proc = 15625 5832
Generated 0 of 21 mixed pair_coeff terms from geometric mixing rule
Per MPI rank memory allocation (min/avg/max) = 9.773 | 9.773 | 9.773 Mbytes
   Step          Temp          E_pair         E_mol          TotEng         Press     
        12   7782.9886      2.0495365      0.061129606    4.1227266      293.45312    
        13   7081.0502      2.132505       0.16065285     4.123753       324.51995    
Loop time of 0.00284145 on 1 procs for 1 steps with 3 atoms

run 1 pre yes post no
PPPM initialization ...
  using 12-bit tables for long-range coulomb (src/kspace.cpp:342)
  G vector (1/distance) = 0.28934131
  grid = 18 18 18
  stencil order = 5
  estimated absolute RMS force accuracy = 7.7110449e-05
  estimated relative force accuracy = 5.3550243e-06
  using double precision KISS FFT
  3d grid and FFT values/proc = 15625 5832
Generated 0 of 21 mixed pair_coeff terms from geometric mixing rule
Per MPI rank memory allocation (min/avg/max) = 9.773 | 9.773 | 9.773 Mbytes
   Step          Temp          E_pair         E_mol          TotEng         Press     
        13   7081.0502      2.132505       0.16065285     4.123753       324.51995    
        14   6293.7442      2.2067707      0.29103976     4.124871       347.41315    
Loop time of 0.00296614 on 1 procs for 1 steps with 3 atoms

run 1 pre yes post no
PPPM initialization ...
  using 12-bit tables for long-range coulomb (src/kspace.cpp:342)
  G vector (1/distance) = 0.28934131
  grid = 18 18 18
  stencil order = 5
  estimated absolute RMS force accuracy = 7.7110449e-05
  estimated relative force accuracy = 5.3550243e-06
  using double precision KISS FFT
  3d grid and FFT values/proc = 15625 5832
Generated 0 of 21 mixed pair_coeff terms from geometric mixing rule
Per MPI rank memory allocation (min/avg/max) = 9.773 | 9.773 | 9.773 Mbytes
   Step          Temp          E_pair         E_mol          TotEng         Press     
        14   6293.7442      2.2067707      0.29103976     4.124871       347.41315    
        15   5485.9593      2.2713648      0.43640119     4.1259977      363.37827    
Loop time of 0.00276562 on 1 procs for 1 steps with 3 atoms

run 1 pre yes post no
PPPM initialization ...
  using 12-bit tables for long-range coulomb (src/kspace.cpp:342)
  G vector (1/distance) = 0.28934131
  grid = 18 18 18
  stencil order = 5
  estimated absolute RMS force accuracy = 7.7110449e-05
  estimated relative force accuracy = 5.3550243e-06
  using double precision KISS FFT
  3d grid and FFT values/proc = 15625 5832
Generated 0 of 21 mixed pair_coeff terms from geometric mixing rule
Per MPI rank memory allocation (min/avg/max) = 9.773 | 9.773 | 9.773 Mbytes
   Step          Temp          E_pair         E_mol          TotEng         Press     
        15   5485.9593      2.2713648      0.43640119     4.1259977      363.37827    
        16   4723.1988      2.3255656      0.58044243     4.1270508      373.81513    
Loop time of 0.00323586 on 1 procs for 1 steps with 3 atoms

run 1 pre yes post no
PPPM initialization ...
  using 12-bit tables for long-range coulomb (src/kspace.cpp:342)
  G vector (1/distance) = 0.28934131
  grid = 18 18 18
  stencil order = 5
  estimated absolute RMS force accuracy = 7.7110449e-05
  estimated relative force accuracy = 5.3550243e-06
  using double precision KISS FFT
  3d grid and FFT values/proc = 15625 5832
Generated 0 of 21 mixed pair_coeff terms from geometric mixing rule
Per MPI rank memory allocation (min/avg/max) = 9.773 | 9.773 | 9.773 Mbytes
   Step          Temp          E_pair         E_mol          TotEng         Press     
        16   4723.1988      2.3255656      0.58044243     4.1270508      373.81513    
        17   4066.5774      2.3688604      0.7077943      4.1279475      380.11889    
Loop time of 0.00280846 on 1 procs for 1 steps with 3 atoms

run 1 pre yes post no
PPPM initialization ...
  using 12-bit tables for long-range coulomb (src/kspace.cpp:342)
  G vector (1/distance) = 0.28934131
  grid = 18 18 18
  stencil order = 5
  estimated absolute RMS force accuracy = 7.7110449e-05
  estimated relative force accuracy = 5.3550243e-06
  using double precision KISS FFT
  3d grid and FFT values/proc = 15625 5832
Generated 0 of 21 mixed pair_coeff terms from geometric mixing rule
Per MPI rank memory allocation (min/avg/max) = 9.773 | 9.773 | 9.773 Mbytes
   Step          Temp          E_pair         E_mol          TotEng         Press     
        17   4066.5774      2.3688604      0.7077943      4.1279475      380.11889    
        18   3568.0355      2.4009212      0.80528521     4.128616       383.52825    
Loop time of 0.00256082 on 1 procs for 1 steps with 3 atoms

run 1 pre yes post no
PPPM initialization ...
  using 12-bit tables for long-range coulomb (src/kspace.cpp:342)
  G vector (1/distance) = 0.28934131
  grid = 18 18 18
  stencil order = 5
  estimated absolute RMS force accuracy = 7.7110449e-05
  estimated relative force accuracy = 5.3550243e-06
  using double precision KISS FFT
  3d grid and FFT values/proc = 15625 5832
Generated 0 of 21 mixed pair_coeff terms from geometric mixing rule
Per MPI rank memory allocation (min/avg/max) = 9.773 | 9.773 | 9.773 Mbytes
   Step          Temp          E_pair         E_mol          TotEng         Press     
        18   3568.0355      2.4009212      0.80528521     4.128616       383.52825    
        19   3266.1835      2.421583       0.86304516     4.1290029      384.99341    
Loop time of 0.00271008 on 1 procs for 1 steps with 3 atoms

run 1 pre yes post no
PPPM initialization ...
  using 12-bit tables for long-range coulomb (src/kspace.cpp:342)
  G vector (1/distance) = 0.28934131
  grid = 18 18 18
  stencil order = 5
  estimated absolute RMS force accuracy = 7.7110449e-05
  estimated relative force accuracy = 5.3550243e-06
  using double precision KISS FFT
  3d grid and FFT values/proc = 15625 5832
Generated 0 of 21 mixed pair_coeff terms from geometric mixing rule
Per MPI rank memory allocation (min/avg/max) = 9.773 | 9.773 | 9.773 Mbytes
   Step          Temp          E_pair         E_mol          TotEng         Press     
        19   3266.1835      2.421583       0.86304516     4.1290029      384.99341    
        20   3183.1679      2.4308248      0.87533816     4.1290765      385.07644    
Loop time of 0.00258766 on 1 procs for 1 steps with 3 atoms

run 1 pre yes post no
PPPM initialization ...
  using 12-bit tables for long-range coulomb (src/kspace.cpp:342)
  G vector (1/distance) = 0.28934131
  grid = 18 18 18
  stencil order = 5
  estimated absolute RMS force accuracy = 7.7110449e-05
  estimated relative force accuracy = 5.3550243e-06
  using double precision KISS FFT
  3d grid and FFT values/proc = 15625 5832
Generated 0 of 21 mixed pair_coeff terms from geometric mixing rule
Per MPI rank memory allocation (min/avg/max) = 9.773 | 9.773 | 9.773 Mbytes
   Step          Temp          E_pair         E_mol          TotEng         Press     
        20   3183.1679      2.4308248      0.87533816     4.1290765      385.07644    
        21   3322.8766      2.428762       0.84103988     4.1288328      383.89398    
Loop time of 0.00273401 on 1 procs for 1 steps with 3 atoms

run 1 pre yes post no
PPPM initialization ...
  using 12-bit tables for long-range coulomb (src/kspace.cpp:342)
  G vector (1/distance) = 0.28934131
  grid = 18 18 18
  stencil order = 5
  estimated absolute RMS force accuracy = 7.7110449e-05
  estimated relative force accuracy = 5.3550243e-06
  using double precision KISS FFT
  3d grid and FFT values/proc = 15625 5832
Generated 0 of 21 mixed pair_coeff terms from geometric mixing rule
Per MPI rank memory allocation (min/avg/max) = 9.773 | 9.773 | 9.773 Mbytes
   Step          Temp          E_pair         E_mol          TotEng         Press     
        21   3322.8766      2.428762       0.84103988     4.1288328      383.89398    
        22   3670.6737      2.4156393      0.76371103     4.128294       381.10762    
Loop time of 0.00325657 on 1 procs for 1 steps with 3 atoms

run 1 pre yes post no
PPPM initialization ...
  using 12-bit tables for long-range coulomb (src/kspace.cpp:342)
  G vector (1/distance) = 0.28934131
  grid = 18 18 18
  stencil order = 5
  estimated absolute RMS force accuracy = 7.7110449e-05
  estimated relative force accuracy = 5.3550243e-06
  using double precision KISS FFT
  3d grid and FFT values/proc = 15625 5832
Generated 0 of 21 mixed pair_coeff terms from geometric mixing rule
Per MPI rank memory allocation (min/avg/max) = 9.773 | 9.773 | 9.773 Mbytes
   Step          Temp          E_pair         E_mol          TotEng         Press     
        22   3670.6737      2.4156393      0.76371103     4.128294       381.10762    
        23   4194.6901      2.3918355      0.6512601      4.1275081      375.96334    
Loop time of 0.00268836 on 1 procs for 1 steps with 3 atoms

run 1 pre yes post no
PPPM initialization ...
  using 12-bit tables for long-range coulomb (src/kspace.cpp:342)
  G vector (1/distance) = 0.28934131
  grid = 18 18 18
  stencil order = 5
  estimated absolute RMS force accuracy = 7.7110449e-05
  estimated relative force accuracy = 5.3550243e-06
  using double precision KISS FFT
  3d grid and FFT values/proc = 15625 5832
Generated 0 of 21 mixed pair_coeff terms from geometric mixing rule
Per MPI rank memory allocation (min/avg/max) = 9.773 | 9.773 | 9.773 Mbytes
   Step          Temp          E_pair         E_mol          TotEng         Press     
        23   4194.6901      2.3918355      0.6512601      4.1275081      375.96334    
        24   4848.5283      2.3578643      0.5152332      4.1265404      367.37477    
Loop time of 0.00335941 on 1 procs for 1 steps with 3 atoms

run 1 pre yes post no
PPPM initialization ...
  using 12-bit tables for long-range coulomb (src/kspace.cpp:342)
  G vector (1/distance) = 0.28934131
  grid = 18 18 18
  stencil order = 5
  estimated absolute RMS force accuracy = 7.7110449e-05
  estimated relative force accuracy = 5.3550243e-06
  using double precision KISS FFT
  3d grid and FFT values/proc = 15625 5832
Generated 0 of 21 mixed pair_coeff terms from geometric mixing rule
Per MPI rank memory allocation (min/avg/max) = 9.773 | 9.773 | 9.773 Mbytes
   Step          Temp          E_pair         E_mol          TotEng         Press     
        24   4848.5283      2.3578643      0.5152332      4.1265404      367.37477    
        25   5575.1027      2.3143865      0.36980551     4.1254692      354.04234    
Loop time of 0.00395917 on 1 procs for 1 steps with 3 atoms

run 1 pre yes post no
PPPM initialization ...
  using 12-bit tables for long-range coulomb (src/kspace.cpp:342)
  G vector (1/distance) = 0.28934131
  grid = 18 18 18
  stencil order = 5
  estimated absolute RMS force accuracy = 7.7110449e-05
  estimated relative force accuracy = 5.3550243e-06
  using double precision KISS FFT
  3d grid and FFT values/proc = 15625 5832
Generated 0 of 21 mixed pair_coeff terms from geometric mixing rule
Per MPI rank memory allocation (min/avg/max) = 9.773 | 9.773 | 9.773 Mbytes
   Step          Temp          E_pair         E_mol          TotEng         Press     
        25   5575.1027      2.3143865      0.36980551     4.1254692      354.04234    
        26   6311.2441      2.2622233      0.23057277     4.1243807      334.59605    
Loop time of 0.00339481 on 1 procs for 1 steps with 3 atoms

run 1 pre yes post no
PPPM initialization ...
  using 12-bit tables for long-range coulomb (src/kspace.cpp:342)
  G vector (1/distance) = 0.28934131
  grid = 18 18 18
  stencil order = 5
  estimated absolute RMS force accuracy = 7.7110449e-05
  estimated relative force accuracy = 5.3550243e-06
  using double precision KISS FFT
  3d grid and FFT values/proc = 15625 5832
Generated 0 of 21 mixed pair_coeff terms from geometric mixing rule
Per MPI rank memory allocation (min/avg/max) = 9.773 | 9.773 | 9.773 Mbytes
   Step          Temp          E_pair         E_mol          TotEng         Press     
        26   6311.2441      2.2622233      0.23057277     4.1243807      334.59605    
        27   6992.6638      2.2023603      0.1132505      4.1233563      307.74861    
Loop time of 0.00275753 on 1 procs for 1 steps with 3 atoms

run 1 pre yes post no
PPPM initialization ...
  using 12-bit tables for long-range coulomb (src/kspace.cpp:342)
  G vector (1/distance) = 0.28934131
  grid = 18 18 18
  stencil order = 5
  estimated absolute RMS force accuracy = 7.7110449e-05
  estimated relative force accuracy = 5.3550243e-06
  using double precision KISS FFT
  3d grid and FFT values/proc = 15625 5832
Generated 0 of 21 mixed pair_coeff terms from geometric mixing rule
Per MPI rank memory allocation (min/avg/max) = 9.773 | 9.773 | 9.773 Mbytes
   Step          Temp          E_pair         E_mol          TotEng         Press     
        27   6992.6638      2.2023603      0.1132505      4.1233563      307.74861    
        28   7558.8822      2.1359616      0.032386559    4.1224726      272.44647    
Loop time of 0.0080658 on 1 procs for 1 steps with 3 atoms

run 1 pre yes post no
PPPM initialization ...
  using 12-bit tables for long-range coulomb (src/kspace.cpp:342)
  G vector (1/distance) = 0.28934131
  grid = 18 18 18
  stencil order = 5
  estimated absolute RMS force accuracy = 7.7110449e-05
  estimated relative force accuracy = 5.3550243e-06
  using double precision KISS FFT
  3d grid and FFT values/proc = 15625 5832
Generated 0 of 21 mixed pair_coeff terms from geometric mixing rule
Per MPI rank memory allocation (min/avg/max) = 9.773 | 9.773 | 9.773 Mbytes
   Step          Temp          E_pair         E_mol          TotEng         Press     
        28   7558.8822      2.1359616      0.032386559    4.1224726      272.44647    
        29   7957.7684      2.0643645      0.00018225373  4.1217913      228.0057     
Loop time of 0.0033692 on 1 procs for 1 steps with 3 atoms

run 1 pre yes post no
PPPM initialization ...
  using 12-bit tables for long-range coulomb (src/kspace.cpp:342)
  G vector (1/distance) = 0.28934131
  grid = 18 18 18
  stencil order = 5
  estimated absolute RMS force accuracy = 7.7110449e-05
  estimated relative force accuracy = 5.3550243e-06
  using double precision KISS FFT
  3d grid and FFT values/proc = 15625 5832
Generated 0 of 21 mixed pair_coeff terms from geometric mixing rule
Per MPI rank memory allocation (min/avg/max) = 9.773 | 9.773 | 9.773 Mbytes
   Step          Temp          E_pair         E_mol          TotEng         Press     
        29   7957.7684      2.0643645      0.00018225373  4.1217913      228.0057     
        30   8149.3943      1.9890758      0.025502379    4.121362       174.22309    
Loop time of 0.00299965 on 1 procs for 1 steps with 3 atoms

run 1 pre yes post no
PPPM initialization ...
  using 12-bit tables for long-range coulomb (src/kspace.cpp:342)
  G vector (1/distance) = 0.28934131
  grid = 18 18 18
  stencil order = 5
  estimated absolute RMS force accuracy = 7.7110449e-05
  estimated relative force accuracy = 5.3550243e-06
  using double precision KISS FFT
  3d grid and FFT values/proc = 15625 5832
Generated 0 of 21 mixed pair_coeff terms from geometric mixing rule
Per MPI rank memory allocation (min/avg/max) = 9.773 | 9.773 | 9.773 Mbytes
   Step          Temp          E_pair         E_mol          TotEng         Press     
        30   8149.3943      1.9890758      0.025502379    4.121362       174.22309    
        31   8108.9815      1.9117433      0.11313768     4.1212172      111.45317    
Loop time of 0.00423561 on 1 procs for 1 steps with 3 atoms

run 1 pre yes post no
PPPM initialization ...
  using 12-bit tables for long-range coulomb (src/kspace.cpp:342)
  G vector (1/distance) = 0.28934131
  grid = 18 18 18
  stencil order = 5
  estimated absolute RMS force accuracy = 7.7110449e-05
  estimated relative force accuracy = 5.3550243e-06
  using double precision KISS FFT
  3d grid and FFT values/proc = 15625 5832
Generated 0 of 21 mixed pair_coeff terms from geometric mixing rule
Per MPI rank memory allocation (min/avg/max) = 9.773 | 9.773 | 9.773 Mbytes
   Step          Temp          E_pair         E_mol          TotEng         Press     
        31   8108.9815      1.9117433      0.11313768     4.1212172      111.45317    
        32   7828.8249      1.8341162      0.26336505     4.1213914      40.646686    
Loop time of 0.00511504 on 1 procs for 1 steps with 3 atoms

run 1 pre yes post no
PPPM initialization ...
  using 12-bit tables for long-range coulomb (src/kspace.cpp:342)
  G vector (1/distance) = 0.28934131
  grid = 18 18 18
  stencil order = 5
  estimated absolute RMS force accuracy = 7.7110449e-05
  estimated relative force accuracy = 5.3550243e-06
  using double precision KISS FFT
  3d grid and FFT values/proc = 15625 5832
Generated 0 of 21 mixed pair_coeff terms from geometric mixing rule
Per MPI rank memory allocation (min/avg/max) = 9.773 | 9.773 | 9.773 Mbytes
   Step          Temp          E_pair         E_mol          TotEng         Press     
        32   7828.8249      1.8341162      0.26336505     4.1213914      40.646686    
        33   7319.3057      1.7579894      0.47183412     4.1220126     -36.650041    
Loop time of 0.00353682 on 1 procs for 1 steps with 3 atoms

run 1 pre yes post no
PPPM initialization ...
  using 12-bit tables for long-range coulomb (src/kspace.cpp:342)
  G vector (1/distance) = 0.28934131
  grid = 18 18 18
  stencil order = 5
  estimated absolute RMS force accuracy = 7.7110449e-05
  estimated relative force accuracy = 5.3550243e-06
  using double precision KISS FFT
  3d grid and FFT values/proc = 15625 5832
Generated 0 of 21 mixed pair_coeff terms from geometric mixing rule
Per MPI rank memory allocation (min/avg/max) = 9.773 | 9.773 | 9.773 Mbytes
   Step          Temp          E_pair         E_mol          TotEng         Press     
        33   7319.3057      1.7579894      0.47183412     4.1220126     -36.650041    
        34   6609.3846      1.6851218      0.72980271     4.1235845     -118.33139    
Loop time of 0.00307526 on 1 procs for 1 steps with 3 atoms

run 1 pre yes post no
PPPM initialization ...
  using 12-bit tables for long-range coulomb (src/kspace.cpp:342)
  G vector (1/distance) = 0.28934131
  grid = 18 18 18
  stencil order = 5
  estimated absolute RMS force accuracy = 7.7110449e-05
  estimated relative force accuracy = 5.3550243e-06
  using double precision KISS FFT
  3d grid and FFT values/proc = 15625 5832
Generated 0 of 21 mixed pair_coeff terms from geometric mixing rule
Per MPI rank memory allocation (min/avg/max) = 9.773 | 9.773 | 9.773 Mbytes
   Step          Temp          E_pair         E_mol          TotEng         Press     
        34   6609.3846      1.6851218      0.72980271     4.1235845     -118.33139    
        35   5746.5793      1.6171328      1.0247643      4.1275045     -201.81082    
Loop time of 0.00296785 on 1 procs for 1 steps with 3 atoms

run 1 pre yes post no
PPPM initialization ...
  using 12-bit tables for long-range coulomb (src/kspace.cpp:342)
  G vector (1/distance) = 0.28934131
  grid = 18 18 18
  stencil order = 5
  estimated absolute RMS force accuracy = 7.7110449e-05
  estimated relative force accuracy = 5.3550243e-06
  using double precision KISS FFT
  3d grid and FFT values/proc = 15625 5832
Generated 0 of 21 mixed pair_coeff terms from geometric mixing rule
Per MPI rank memory allocation (min/avg/max) = 9.773 | 9.773 | 9.773 Mbytes
   Step          Temp          E_pair         E_mol          TotEng         Press     
        35   5746.5793      1.6171328      1.0247643      4.1275045     -201.81082    
        36   4794.5853      1.5553655      1.3415411      4.1364042     -284.18207    
Loop time of 0.00288418 on 1 procs for 1 steps with 3 atoms

run 1 pre yes post no
PPPM initialization ...
  using 12-bit tables for long-range coulomb (src/kspace.cpp:342)
  G vector (1/distance) = 0.28934131
  grid = 18 18 18
  stencil order = 5
  estimated absolute RMS force accuracy = 7.7110449e-05
  estimated relative force accuracy = 5.3550243e-06
  using double precision KISS FFT
  3d grid and FFT values/proc = 15625 5832
Generated 0 of 21 mixed pair_coeff terms from geometric mixing rule
Per MPI rank memory allocation (min/avg/max) = 9.773 | 9.773 | 9.773 Mbytes
   Step          Temp          E_pair         E_mol          TotEng         Press     
        36   4794.5853      1.5553655      1.3415411      4.1364042     -284.18207    
        37   3825.5438      1.500717       1.6638373      4.153535      -362.50831    
Loop time of 0.00387054 on 1 procs for 1 steps with 3 atoms

run 1 pre yes post no
PPPM initialization ...
  using 12-bit tables for long-range coulomb (src/kspace.cpp:342)
  G vector (1/distance) = 0.28934131
  grid = 18 18 18
  stencil order = 5
  estimated absolute RMS force accuracy = 7.7110449e-05
  estimated relative force accuracy = 5.3550243e-06
  using double precision KISS FFT
  3d grid and FFT values/proc = 15625 5832
Generated 0 of 21 mixed pair_coeff terms from geometric mixing rule
Per MPI rank memory allocation (min/avg/max) = 9.773 | 9.773 | 9.773 Mbytes
   Step          Temp          E_pair         E_mol          TotEng         Press     
        37   3825.5438      1.500717       1.6638373      4.153535      -362.50831    
        38   2907.4875      1.4535265      1.975984       4.181155      -434.18776    
Loop time of 0.00270973 on 1 procs for 1 steps with 3 atoms

run 1 pre yes post no
PPPM initialization ...
  using 12-bit tables for long-range coulomb (src/kspace.cpp:342)
  G vector (1/distance) = 0.28934131
  grid = 18 18 18
  stencil order = 5
  estimated absolute RMS force accuracy = 7.7110449e-05
  estimated relative force accuracy = 5.3550243e-06
  using double precision KISS FFT
  3d grid and FFT values/proc = 15625 5832
Generated 0 of 21 mixed pair_coeff terms from geometric mixing rule
Per MPI rank memory allocation (min/avg/max) = 9.773 | 9.773 | 9.773 Mbytes
   Step          Temp          E_pair         E_mol          TotEng         Press     
        38   2907.4875      1.4535265      1.975984       4.181155      -434.18776    
        39   2093.0706      1.4135643      2.2643841      4.2190496     -497.23692    
Loop time of 0.00284374 on 1 procs for 1 steps with 3 atoms

run 1 pre yes post no
PPPM initialization ...
  using 12-bit tables for long-range coulomb (src/kspace.cpp:342)
  G vector (1/distance) = 0.28934131
  grid = 18 18 18
  stencil order = 5
  estimated absolute RMS force accuracy = 7.7110449e-05
  estimated relative force accuracy = 5.3550243e-06
  using double precision KISS FFT
  3d grid and FFT values/proc = 15625 5832
Generated 0 of 21 mixed pair_coeff terms from geometric mixing rule
Per MPI rank memory allocation (min/avg/max) = 9.773 | 9.773 | 9.773 Mbytes
   Step          Temp          E_pair         E_mol          TotEng         Press     
        39   2093.0706      1.4135643      2.2643841      4.2190496     -497.23692    
        40   1415.3815      1.3801531      2.5183006      4.2643585     -550.37074    
Loop time of 0.00274623 on 1 procs for 1 steps with 3 atoms

Total wall time: 0:00:07
