LAMMPS (8 Feb 2023)
WARNING: Using I/O redirection is unreliable with parallel runs. Better to use the -in switch to read input files. (src/lammps.cpp:531)
OMP_NUM_THREADS environment is not set. Defaulting to 1 thread. (src/comm.cpp:98)
  using 1 OpenMP thread(s) per MPI task
units metal
atom_style full
boundary p p p
read_data /tmp/mustard.121a199d45e5414782a5df128d461037
Reading data file ...
  triclinic box = (0 0 0) to (25.319 25.319 25.319) with tilt (0 0 0)
  2 by 2 by 4 MPI processor grid
  reading atoms ...
  1081 atoms
  reading velocities ...
  1081 velocities
  scanning bonds ...
  1 = max bonds/atom
  reading bonds ...
  1 bonds
Finding 1-2 1-3 1-4 neighbors ...
  special bond factors lj:    0        0        0       
  special bond factors coul:  0        0        0       
     1 = max # of 1-2 neighbors
     0 = max # of 1-3 neighbors
     0 = max # of 1-4 neighbors
     1 = max # of special neighbors
  special bonds CPU = 0.000 seconds
  read_data CPU = 0.006 seconds
include ff.lmp
##############################################################################################
#### Atoms' types - mass - charge
##############################################################################################
#@ 7   atom types

variable Ba  equal 1
variable Zr  equal 2
variable  Y  equal 3
variable O1  equal 4
variable O2  equal 5
variable O3  equal 6
variable H1  equal 7

##############################################################################################
#### Atoms' masses
##############################################################################################

mass  ${Ba}   137.327
mass  1   137.327
mass  ${Zr}    91.224
mass  2    91.224
mass  ${Y}     88.910
mass  3     88.910
mass  ${O1}    15.996
mass  4    15.996
mass  ${O2}    15.996
mass  5    15.996
mass  ${O3}    15.996
mass  6    15.996
mass  ${H1}     1.010
mass  7     1.010

##############################################################################################
#### Atoms' charges
##############################################################################################

set type ${Ba}  charge     2.000000
set type 1  charge     2.000000
Setting atom values ...
  216 settings made for charge
set type ${Zr}  charge     4.000000
set type 2  charge     4.000000
Setting atom values ...
  216 settings made for charge
set type ${Y}   charge     3.000000
set type 3   charge     3.000000
Setting atom values ...
  0 settings made for charge
set type ${O1}  charge    -1.308698
set type 4  charge    -1.308698
Setting atom values ...
  1 settings made for charge
set type ${O2}  charge    -2.000000
set type 5  charge    -2.000000
Setting atom values ...
  647 settings made for charge
set type ${O3}  charge    -2.000000
set type 6  charge    -2.000000
Setting atom values ...
  0 settings made for charge
set type ${H1}  charge     0.308698
set type 7  charge     0.308698
Setting atom values ...
  1 settings made for charge

##############################################################################################
#### Covalent bonds parameters
##############################################################################################
#@  1   bond types

bond_style harmonic
#@ O1 - H1
bond_coeff   1      23.008000      0.985357

##############################################################################################
# Pair potentials
##############################################################################################

variable rmin  equal  8.
variable rmax  equal 10.

pair_style hybrid/overlay buck/mdf ${rmin} ${rmax} lennard/mdf ${rmin} ${rmax} coul/long ${rmax}
pair_style hybrid/overlay buck/mdf 8 ${rmax} lennard/mdf ${rmin} ${rmax} coul/long ${rmax}
pair_style hybrid/overlay buck/mdf 8 10 lennard/mdf ${rmin} ${rmax} coul/long ${rmax}
pair_style hybrid/overlay buck/mdf 8 10 lennard/mdf 8 ${rmax} coul/long ${rmax}
pair_style hybrid/overlay buck/mdf 8 10 lennard/mdf 8 10 coul/long ${rmax}
pair_style hybrid/overlay buck/mdf 8 10 lennard/mdf 8 10 coul/long 10

##############################################################################################
# Buckingham interaction potentials
pair_coeff  ${Ba}  ${O1}  buck/mdf   688.21662   0.392014   0.000
pair_coeff  1  ${O1}  buck/mdf   688.21662   0.392014   0.000
pair_coeff  1  4  buck/mdf   688.21662   0.392014   0.000
pair_coeff  ${Ba}  ${O2}  buck/mdf   972.19945   0.392014   0.000
pair_coeff  1  ${O2}  buck/mdf   972.19945   0.392014   0.000
pair_coeff  1  5  buck/mdf   972.19945   0.392014   0.000
pair_coeff  ${Ba}  ${O3}  buck/mdf   972.19945   0.392014   0.000
pair_coeff  1  ${O3}  buck/mdf   972.19945   0.392014   0.000
pair_coeff  1  6  buck/mdf   972.19945   0.392014   0.000

pair_coeff  ${Y}   ${O1}  buck/mdf   2972.3808   0.267317   0.000
pair_coeff  3   ${O1}  buck/mdf   2972.3808   0.267317   0.000
pair_coeff  3   4  buck/mdf   2972.3808   0.267317   0.000
pair_coeff  ${Y}   ${O2}  buck/mdf   4121.8373   0.280386   0.000
pair_coeff  3   ${O2}  buck/mdf   4121.8373   0.280386   0.000
pair_coeff  3   5  buck/mdf   4121.8373   0.280386   0.000
pair_coeff  ${Y}   ${O3}  buck/mdf   4121.8373   0.280386   0.000
pair_coeff  3   ${O3}  buck/mdf   4121.8373   0.280386   0.000
pair_coeff  3   6  buck/mdf   4121.8373   0.280386   0.000

pair_coeff  ${Zr}  ${O1}  buck/mdf   2195.8712   0.298760   0.000
pair_coeff  2  ${O1}  buck/mdf   2195.8712   0.298760   0.000
pair_coeff  2  4  buck/mdf   2195.8712   0.298760   0.000
pair_coeff  ${Zr}  ${O2}  buck/mdf   3250.8545   0.298760   0.000
pair_coeff  2  ${O2}  buck/mdf   3250.8545   0.298760   0.000
pair_coeff  2  5  buck/mdf   3250.8545   0.298760   0.000
pair_coeff  ${Zr}  ${O3}  buck/mdf   3250.8545   0.298760   0.000
pair_coeff  2  ${O3}  buck/mdf   3250.8545   0.298760   0.000
pair_coeff  2  6  buck/mdf   3250.8545   0.298760   0.000

pair_coeff  ${O1}  ${O1}  buck/mdf   22764.000   0.149000   0.000
pair_coeff  4  ${O1}  buck/mdf   22764.000   0.149000   0.000
pair_coeff  4  4  buck/mdf   22764.000   0.149000   0.000
pair_coeff  ${O1}  ${O2}  buck/mdf   22764.000   0.149000   0.000
pair_coeff  4  ${O2}  buck/mdf   22764.000   0.149000   0.000
pair_coeff  4  5  buck/mdf   22764.000   0.149000   0.000
pair_coeff  ${O1}  ${O3}  buck/mdf   22764.000   0.149000   0.000
pair_coeff  4  ${O3}  buck/mdf   22764.000   0.149000   0.000
pair_coeff  4  6  buck/mdf   22764.000   0.149000   0.000

pair_coeff  ${O2}  ${O2}  buck/mdf   22764.000   0.149000   0.000
pair_coeff  5  ${O2}  buck/mdf   22764.000   0.149000   0.000
pair_coeff  5  5  buck/mdf   22764.000   0.149000   0.000
pair_coeff  ${O2}  ${O3}  buck/mdf   22764.000   0.149000   0.000
pair_coeff  5  ${O3}  buck/mdf   22764.000   0.149000   0.000
pair_coeff  5  6  buck/mdf   22764.000   0.149000   0.000

pair_coeff  ${O3}  ${O3}  buck/mdf   22764.000   0.149000   0.000
pair_coeff  6  ${O3}  buck/mdf   22764.000   0.149000   0.000
pair_coeff  6  6  buck/mdf   22764.000   0.149000   0.000

##############################################################################################
# 12-6 Lennard-Jones potentials
pair_coeff  ${O1}  ${H1}  lennard/mdf    6.391   0.000
pair_coeff  4  ${H1}  lennard/mdf    6.391   0.000
pair_coeff  4  7  lennard/mdf    6.391   0.000
pair_coeff  ${O2}  ${H1}  lennard/mdf    6.391   0.000
pair_coeff  5  ${H1}  lennard/mdf    6.391   0.000
pair_coeff  5  7  lennard/mdf    6.391   0.000
pair_coeff  ${O3}  ${H1}  lennard/mdf    7.800   0.000
pair_coeff  6  ${H1}  lennard/mdf    7.800   0.000
pair_coeff  6  7  lennard/mdf    7.800   0.000

##############################################################################################
# Coulombic interaction
pair_coeff      *      *  coul/long

#########################################################################################################
# Parameters for reciprocal space electrostatics
#########################################################################################################

kspace_style pppm 1.0e-5
kspace_modify fftbench no
fix md all nve
fix tst all temp/csvr 1500 1500 0.1 44731
timestep 0.001
fix com all momentum 100 linear 1 1 1
fix ext all external pf/array 1
fix_modify ext energy no
fix_modify ext virial no
fix ux all store/state 1 xu yu zu
run 0 pre yes post no
PPPM initialization ...
WARNING: System is not charge neutral, net charge = 1 (src/kspace.cpp:327)
  using 12-bit tables for long-range coulomb (src/kspace.cpp:342)
  G vector (1/distance) = 0.34497565
  grid = 40 40 40
  stencil order = 5
  estimated absolute RMS force accuracy = 0.00013990511
  estimated relative force accuracy = 9.7158722e-06
  using double precision FFTW3
  3d grid and FFT values/proc = 15979 4800
Generated 0 of 21 mixed pair_coeff terms from geometric mixing rule
Neighbor list info ...
  update: every = 1 steps, delay = 0 steps, check = yes
  max neighbors/atom: 2000, page size: 100000
  master list distance cutoff = 12
  ghost atom cutoff = 12
  binsize = 6, bins = 5 5 5
  3 neighbor lists, perpetual/occasional/extra = 3 0 0
  (1) pair buck/mdf, perpetual, skip from (3)
      attributes: half, newton on
      pair build: skip
      stencil: none
      bin: none
  (2) pair lennard/mdf, perpetual, skip from (3)
      attributes: half, newton on
      pair build: skip
      stencil: none
      bin: none
  (3) pair coul/long, perpetual
      attributes: half, newton on
      pair build: half/bin/newton/tri
      stencil: half/bin/3d/tri
      bin: standard
Per MPI rank memory allocation (min/avg/max) = 9.777 | 9.831 | 9.893 Mbytes
   Step          Temp          E_pair         E_mol          TotEng         Press     
         0   1512.7429     -31403.172      0.00037889925 -31191.992     -468.50632    
Loop time of 5.39e-06 on 16 procs for 0 steps with 1081 atoms

run 1 pre yes post no
PPPM initialization ...
  using 12-bit tables for long-range coulomb (src/kspace.cpp:342)
  G vector (1/distance) = 0.34497565
  grid = 40 40 40
  stencil order = 5
  estimated absolute RMS force accuracy = 0.00013990511
  estimated relative force accuracy = 9.7158722e-06
  using double precision FFTW3
  3d grid and FFT values/proc = 15979 4800
Generated 0 of 21 mixed pair_coeff terms from geometric mixing rule
Per MPI rank memory allocation (min/avg/max) = 9.777 | 9.831 | 9.893 Mbytes
   Step          Temp          E_pair         E_mol          TotEng         Press     
         0   1512.7429     -31403.172      0.00037889925 -31191.992     -468.50632    
         1   1507.4735     -31403.375      0.0019955403  -31192.929     -473.24955    
Loop time of 0.00299223 on 16 procs for 1 steps with 1081 atoms

run 1 pre yes post no
PPPM initialization ...
  using 12-bit tables for long-range coulomb (src/kspace.cpp:342)
  G vector (1/distance) = 0.34497565
  grid = 40 40 40
  stencil order = 5
  estimated absolute RMS force accuracy = 0.00013990511
  estimated relative force accuracy = 9.7158722e-06
  using double precision FFTW3
  3d grid and FFT values/proc = 15979 4800
Generated 0 of 21 mixed pair_coeff terms from geometric mixing rule
Per MPI rank memory allocation (min/avg/max) = 9.777 | 9.831 | 9.893 Mbytes
   Step          Temp          E_pair         E_mol          TotEng         Press     
         1   1507.4735     -31403.375      0.0019955403  -31192.929     -473.24955    
         2   1507.9269     -31403.563      0.0026653303  -31193.052     -439.043      
Loop time of 0.0030027 on 16 procs for 1 steps with 1081 atoms

run 1 pre yes post no
PPPM initialization ...
  using 12-bit tables for long-range coulomb (src/kspace.cpp:342)
  G vector (1/distance) = 0.34497565
  grid = 40 40 40
  stencil order = 5
  estimated absolute RMS force accuracy = 0.00013990511
  estimated relative force accuracy = 9.7158722e-06
  using double precision FFTW3
  3d grid and FFT values/proc = 15979 4800
Generated 0 of 21 mixed pair_coeff terms from geometric mixing rule
Per MPI rank memory allocation (min/avg/max) = 9.777 | 9.831 | 9.893 Mbytes
   Step          Temp          E_pair         E_mol          TotEng         Press     
         2   1507.9269     -31403.563      0.0026653303  -31193.052     -439.043      
         3   1505.7989     -31403.735      0.042588572   -31193.481     -437.45931    
Loop time of 0.00302684 on 16 procs for 1 steps with 1081 atoms

run 1 pre yes post no
PPPM initialization ...
  using 12-bit tables for long-range coulomb (src/kspace.cpp:342)
  G vector (1/distance) = 0.34497565
  grid = 40 40 40
  stencil order = 5
  estimated absolute RMS force accuracy = 0.00013990511
  estimated relative force accuracy = 9.7158722e-06
  using double precision FFTW3
  3d grid and FFT values/proc = 15979 4800
Generated 0 of 21 mixed pair_coeff terms from geometric mixing rule
Per MPI rank memory allocation (min/avg/max) = 9.777 | 9.831 | 9.893 Mbytes
   Step          Temp          E_pair         E_mol          TotEng         Press     
         3   1505.7989     -31403.735      0.042588572   -31193.481     -437.45931    
         4   1515.4441     -31403.886      0.10800722    -31192.221     -318.27503    
Loop time of 0.00301481 on 16 procs for 1 steps with 1081 atoms

run 1 pre yes post no
PPPM initialization ...
  using 12-bit tables for long-range coulomb (src/kspace.cpp:342)
  G vector (1/distance) = 0.34497565
  grid = 40 40 40
  stencil order = 5
  estimated absolute RMS force accuracy = 0.00013990511
  estimated relative force accuracy = 9.7158722e-06
  using double precision FFTW3
  3d grid and FFT values/proc = 15979 4800
Generated 0 of 21 mixed pair_coeff terms from geometric mixing rule
Per MPI rank memory allocation (min/avg/max) = 9.777 | 9.831 | 9.893 Mbytes
   Step          Temp          E_pair         E_mol          TotEng         Press     
         4   1515.4441     -31403.886      0.10800722    -31192.221     -318.27503    
         5   1506.7412     -31404.01       0.12042889    -31193.547     -338.1471     
Loop time of 0.00292243 on 16 procs for 1 steps with 1081 atoms

run 1 pre yes post no
PPPM initialization ...
  using 12-bit tables for long-range coulomb (src/kspace.cpp:342)
  G vector (1/distance) = 0.34497565
  grid = 40 40 40
  stencil order = 5
  estimated absolute RMS force accuracy = 0.00013990511
  estimated relative force accuracy = 9.7158722e-06
  using double precision FFTW3
  3d grid and FFT values/proc = 15979 4800
Generated 0 of 21 mixed pair_coeff terms from geometric mixing rule
Per MPI rank memory allocation (min/avg/max) = 9.777 | 9.831 | 9.893 Mbytes
   Step          Temp          E_pair         E_mol          TotEng         Press     
         5   1506.7412     -31404.01       0.12042889    -31193.547     -338.1471     
         6   1505.1192     -31404.097      0.060335925   -31193.92      -263.18872    
Loop time of 0.00297765 on 16 procs for 1 steps with 1081 atoms

run 1 pre yes post no
PPPM initialization ...
  using 12-bit tables for long-range coulomb (src/kspace.cpp:342)
  G vector (1/distance) = 0.34497565
  grid = 40 40 40
  stencil order = 5
  estimated absolute RMS force accuracy = 0.00013990511
  estimated relative force accuracy = 9.7158722e-06
  using double precision FFTW3
  3d grid and FFT values/proc = 15979 4800
Generated 0 of 21 mixed pair_coeff terms from geometric mixing rule
Per MPI rank memory allocation (min/avg/max) = 9.777 | 9.831 | 9.893 Mbytes
   Step          Temp          E_pair         E_mol          TotEng         Press     
         6   1505.1192     -31404.097      0.060335925   -31193.92      -263.18872    
         7   1504.1252     -31404.136      0.0053811339  -31194.153     -177.3648     
Loop time of 0.00303518 on 16 procs for 1 steps with 1081 atoms

run 1 pre yes post no
PPPM initialization ...
  using 12-bit tables for long-range coulomb (src/kspace.cpp:342)
  G vector (1/distance) = 0.34497565
  grid = 40 40 40
  stencil order = 5
  estimated absolute RMS force accuracy = 0.00013990511
  estimated relative force accuracy = 9.7158722e-06
  using double precision FFTW3
  3d grid and FFT values/proc = 15979 4800
Generated 0 of 21 mixed pair_coeff terms from geometric mixing rule
Per MPI rank memory allocation (min/avg/max) = 9.777 | 9.831 | 9.893 Mbytes
   Step          Temp          E_pair         E_mol          TotEng         Press     
         7   1504.1252     -31404.136      0.0053811339  -31194.153     -177.3648     
         8   1507.9222     -31404.109      0.0064981192  -31193.595     -73.55739     
Loop time of 0.00303779 on 16 procs for 1 steps with 1081 atoms

run 1 pre yes post no
PPPM initialization ...
  using 12-bit tables for long-range coulomb (src/kspace.cpp:342)
  G vector (1/distance) = 0.34497565
  grid = 40 40 40
  stencil order = 5
  estimated absolute RMS force accuracy = 0.00013990511
  estimated relative force accuracy = 9.7158722e-06
  using double precision FFTW3
  3d grid and FFT values/proc = 15979 4800
Generated 0 of 21 mixed pair_coeff terms from geometric mixing rule
Per MPI rank memory allocation (min/avg/max) = 9.777 | 9.831 | 9.893 Mbytes
   Step          Temp          E_pair         E_mol          TotEng         Press     
         8   1507.9222     -31404.109      0.0064981192  -31193.595     -73.55739     
         9   1505.9246     -31403.996      0.017516263   -31193.75      -69.631452    
Loop time of 0.00299877 on 16 procs for 1 steps with 1081 atoms

run 1 pre yes post no
PPPM initialization ...
  using 12-bit tables for long-range coulomb (src/kspace.cpp:342)
  G vector (1/distance) = 0.34497565
  grid = 40 40 40
  stencil order = 5
  estimated absolute RMS force accuracy = 0.00013990511
  estimated relative force accuracy = 9.7158722e-06
  using double precision FFTW3
  3d grid and FFT values/proc = 15979 4800
Generated 0 of 21 mixed pair_coeff terms from geometric mixing rule
Per MPI rank memory allocation (min/avg/max) = 9.777 | 9.831 | 9.893 Mbytes
   Step          Temp          E_pair         E_mol          TotEng         Press     
         9   1505.9246     -31403.996      0.017516263   -31193.75      -69.631452    
        10   1491.6718     -31403.781      0.0021173756  -31195.54      -229.75603    
Loop time of 0.00303338 on 16 procs for 1 steps with 1081 atoms

run 1 pre yes post no
PPPM initialization ...
  using 12-bit tables for long-range coulomb (src/kspace.cpp:342)
  G vector (1/distance) = 0.34497565
  grid = 40 40 40
  stencil order = 5
  estimated absolute RMS force accuracy = 0.00013990511
  estimated relative force accuracy = 9.7158722e-06
  using double precision FFTW3
  3d grid and FFT values/proc = 15979 4800
Generated 0 of 21 mixed pair_coeff terms from geometric mixing rule
Per MPI rank memory allocation (min/avg/max) = 9.777 | 9.831 | 9.893 Mbytes
   Step          Temp          E_pair         E_mol          TotEng         Press     
        10   1491.6718     -31403.781      0.0021173756  -31195.54      -229.75603    
        11   1489.9592     -31403.467      0.021196126   -31195.446     -318.26759    
Loop time of 0.00296155 on 16 procs for 1 steps with 1081 atoms

run 1 pre yes post no
PPPM initialization ...
  using 12-bit tables for long-range coulomb (src/kspace.cpp:342)
  G vector (1/distance) = 0.34497565
  grid = 40 40 40
  stencil order = 5
  estimated absolute RMS force accuracy = 0.00013990511
  estimated relative force accuracy = 9.7158722e-06
  using double precision FFTW3
  3d grid and FFT values/proc = 15979 4800
Generated 0 of 21 mixed pair_coeff terms from geometric mixing rule
Per MPI rank memory allocation (min/avg/max) = 9.777 | 9.831 | 9.893 Mbytes
   Step          Temp          E_pair         E_mol          TotEng         Press     
        11   1489.9592     -31403.467      0.021196126   -31195.446     -318.26759    
        12   1483.3769     -31403.049      0.12855806    -31195.839     -471.00223    
Loop time of 0.00299298 on 16 procs for 1 steps with 1081 atoms

run 1 pre yes post no
PPPM initialization ...
  using 12-bit tables for long-range coulomb (src/kspace.cpp:342)
  G vector (1/distance) = 0.34497565
  grid = 40 40 40
  stencil order = 5
  estimated absolute RMS force accuracy = 0.00013990511
  estimated relative force accuracy = 9.7158722e-06
  using double precision FFTW3
  3d grid and FFT values/proc = 15979 4800
Generated 0 of 21 mixed pair_coeff terms from geometric mixing rule
Per MPI rank memory allocation (min/avg/max) = 9.777 | 9.831 | 9.893 Mbytes
   Step          Temp          E_pair         E_mol          TotEng         Press     
        12   1483.3769     -31403.049      0.12855806    -31195.839     -471.00223    
        13   1477.2192     -31402.514      0.24647778    -31196.046     -601.0884     
Loop time of 0.0030339 on 16 procs for 1 steps with 1081 atoms

run 1 pre yes post no
PPPM initialization ...
  using 12-bit tables for long-range coulomb (src/kspace.cpp:342)
  G vector (1/distance) = 0.34497565
  grid = 40 40 40
  stencil order = 5
  estimated absolute RMS force accuracy = 0.00013990511
  estimated relative force accuracy = 9.7158722e-06
  using double precision FFTW3
  3d grid and FFT values/proc = 15979 4800
Generated 0 of 21 mixed pair_coeff terms from geometric mixing rule
Per MPI rank memory allocation (min/avg/max) = 9.777 | 9.831 | 9.893 Mbytes
   Step          Temp          E_pair         E_mol          TotEng         Press     
        13   1477.2192     -31402.514      0.24647778    -31196.046     -601.0884     
        14   1483.4461     -31401.869      0.24739437    -31194.532     -569.15539    
Loop time of 0.00305731 on 16 procs for 1 steps with 1081 atoms

run 1 pre yes post no
PPPM initialization ...
  using 12-bit tables for long-range coulomb (src/kspace.cpp:342)
  G vector (1/distance) = 0.34497565
  grid = 40 40 40
  stencil order = 5
  estimated absolute RMS force accuracy = 0.00013990511
  estimated relative force accuracy = 9.7158722e-06
  using double precision FFTW3
  3d grid and FFT values/proc = 15979 4800
Generated 0 of 21 mixed pair_coeff terms from geometric mixing rule
Per MPI rank memory allocation (min/avg/max) = 9.777 | 9.831 | 9.893 Mbytes
   Step          Temp          E_pair         E_mol          TotEng         Press     
        14   1483.4461     -31401.869      0.24739437    -31194.532     -569.15539    
        15   1473.3231     -31401.133      0.13129391    -31195.325     -636.64678    
Loop time of 0.00298745 on 16 procs for 1 steps with 1081 atoms

run 1 pre yes post no
PPPM initialization ...
  using 12-bit tables for long-range coulomb (src/kspace.cpp:342)
  G vector (1/distance) = 0.34497565
  grid = 40 40 40
  stencil order = 5
  estimated absolute RMS force accuracy = 0.00013990511
  estimated relative force accuracy = 9.7158722e-06
  using double precision FFTW3
  3d grid and FFT values/proc = 15979 4800
Generated 0 of 21 mixed pair_coeff terms from geometric mixing rule
Per MPI rank memory allocation (min/avg/max) = 9.777 | 9.831 | 9.893 Mbytes
   Step          Temp          E_pair         E_mol          TotEng         Press     
        15   1473.3231     -31401.133      0.13129391    -31195.325     -636.64678    
        16   1472.1265     -31400.366      0.024253649   -31194.832     -599.05439    
Loop time of 0.00306282 on 16 procs for 1 steps with 1081 atoms

run 1 pre yes post no
PPPM initialization ...
  using 12-bit tables for long-range coulomb (src/kspace.cpp:342)
  G vector (1/distance) = 0.34497565
  grid = 40 40 40
  stencil order = 5
  estimated absolute RMS force accuracy = 0.00013990511
  estimated relative force accuracy = 9.7158722e-06
  using double precision FFTW3
  3d grid and FFT values/proc = 15979 4800
Generated 0 of 21 mixed pair_coeff terms from geometric mixing rule
Per MPI rank memory allocation (min/avg/max) = 9.777 | 9.831 | 9.893 Mbytes
   Step          Temp          E_pair         E_mol          TotEng         Press     
        16   1472.1265     -31400.366      0.024253649   -31194.832     -599.05439    
        17   1456.1537     -31399.643      0.00072365992 -31196.362     -710.9388     
Loop time of 0.00304204 on 16 procs for 1 steps with 1081 atoms

run 1 pre yes post no
PPPM initialization ...
  using 12-bit tables for long-range coulomb (src/kspace.cpp:342)
  G vector (1/distance) = 0.34497565
  grid = 40 40 40
  stencil order = 5
  estimated absolute RMS force accuracy = 0.00013990511
  estimated relative force accuracy = 9.7158722e-06
  using double precision FFTW3
  3d grid and FFT values/proc = 15979 4800
Generated 0 of 21 mixed pair_coeff terms from geometric mixing rule
Per MPI rank memory allocation (min/avg/max) = 9.777 | 9.831 | 9.893 Mbytes
   Step          Temp          E_pair         E_mol          TotEng         Press     
        17   1456.1537     -31399.643      0.00072365992 -31196.362     -710.9388     
        18   1460.0904     -31399.048      0.010399488   -31195.207     -680.35716    
Loop time of 0.0030515 on 16 procs for 1 steps with 1081 atoms

run 1 pre yes post no
PPPM initialization ...
  using 12-bit tables for long-range coulomb (src/kspace.cpp:342)
  G vector (1/distance) = 0.34497565
  grid = 40 40 40
  stencil order = 5
  estimated absolute RMS force accuracy = 0.00013990511
  estimated relative force accuracy = 9.7158722e-06
  using double precision FFTW3
  3d grid and FFT values/proc = 15979 4800
Generated 0 of 21 mixed pair_coeff terms from geometric mixing rule
Per MPI rank memory allocation (min/avg/max) = 9.777 | 9.831 | 9.893 Mbytes
   Step          Temp          E_pair         E_mol          TotEng         Press     
        18   1460.0904     -31399.048      0.010399488   -31195.207     -680.35716    
        19   1457.3248     -31398.631      0.0016449655  -31195.186     -761.40912    
Loop time of 0.00307478 on 16 procs for 1 steps with 1081 atoms

run 1 pre yes post no
PPPM initialization ...
  using 12-bit tables for long-range coulomb (src/kspace.cpp:342)
  G vector (1/distance) = 0.34497565
  grid = 40 40 40
  stencil order = 5
  estimated absolute RMS force accuracy = 0.00013990511
  estimated relative force accuracy = 9.7158722e-06
  using double precision FFTW3
  3d grid and FFT values/proc = 15979 4800
Generated 0 of 21 mixed pair_coeff terms from geometric mixing rule
Per MPI rank memory allocation (min/avg/max) = 9.777 | 9.831 | 9.893 Mbytes
   Step          Temp          E_pair         E_mol          TotEng         Press     
        19   1457.3248     -31398.631      0.0016449655  -31195.186     -761.40912    
        20   1459.8106     -31398.417      0.014375892   -31194.612     -836.59567    
Loop time of 0.00305174 on 16 procs for 1 steps with 1081 atoms

run 1 pre yes post no
PPPM initialization ...
  using 12-bit tables for long-range coulomb (src/kspace.cpp:342)
  G vector (1/distance) = 0.34497565
  grid = 40 40 40
  stencil order = 5
  estimated absolute RMS force accuracy = 0.00013990511
  estimated relative force accuracy = 9.7158722e-06
  using double precision FFTW3
  3d grid and FFT values/proc = 15979 4800
Generated 0 of 21 mixed pair_coeff terms from geometric mixing rule
Per MPI rank memory allocation (min/avg/max) = 9.777 | 9.831 | 9.893 Mbytes
   Step          Temp          E_pair         E_mol          TotEng         Press     
        20   1459.8106     -31398.417      0.014375892   -31194.612     -836.59567    
        21   1465.264      -31398.415      0.086740472   -31193.776     -904.71317    
Loop time of 0.00324767 on 16 procs for 1 steps with 1081 atoms

run 1 pre yes post no
PPPM initialization ...
  using 12-bit tables for long-range coulomb (src/kspace.cpp:342)
  G vector (1/distance) = 0.34497565
  grid = 40 40 40
  stencil order = 5
  estimated absolute RMS force accuracy = 0.00013990511
  estimated relative force accuracy = 9.7158722e-06
  using double precision FFTW3
  3d grid and FFT values/proc = 15979 4800
Generated 0 of 21 mixed pair_coeff terms from geometric mixing rule
Per MPI rank memory allocation (min/avg/max) = 9.777 | 9.831 | 9.893 Mbytes
   Step          Temp          E_pair         E_mol          TotEng         Press     
        21   1465.264      -31398.415      0.086740472   -31193.776     -904.71317    
        22   1467.5452     -31398.615      0.15462502    -31193.589     -989.03019    
Loop time of 0.0030949 on 16 procs for 1 steps with 1081 atoms

run 1 pre yes post no
PPPM initialization ...
  using 12-bit tables for long-range coulomb (src/kspace.cpp:342)
  G vector (1/distance) = 0.34497565
  grid = 40 40 40
  stencil order = 5
  estimated absolute RMS force accuracy = 0.00013990511
  estimated relative force accuracy = 9.7158722e-06
  using double precision FFTW3
  3d grid and FFT values/proc = 15979 4800
Generated 0 of 21 mixed pair_coeff terms from geometric mixing rule
Per MPI rank memory allocation (min/avg/max) = 9.777 | 9.831 | 9.893 Mbytes
   Step          Temp          E_pair         E_mol          TotEng         Press     
        22   1467.5452     -31398.615      0.15462502    -31193.589     -989.03019    
        23   1462.5255     -31399          0.13315557    -31194.697     -1103.9309    
Loop time of 0.00301616 on 16 procs for 1 steps with 1081 atoms

run 1 pre yes post no
PPPM initialization ...
  using 12-bit tables for long-range coulomb (src/kspace.cpp:342)
  G vector (1/distance) = 0.34497565
  grid = 40 40 40
  stencil order = 5
  estimated absolute RMS force accuracy = 0.00013990511
  estimated relative force accuracy = 9.7158722e-06
  using double precision FFTW3
  3d grid and FFT values/proc = 15979 4800
Generated 0 of 21 mixed pair_coeff terms from geometric mixing rule
Per MPI rank memory allocation (min/avg/max) = 9.777 | 9.831 | 9.893 Mbytes
   Step          Temp          E_pair         E_mol          TotEng         Press     
        23   1462.5255     -31399          0.13315557    -31194.697     -1103.9309    
        24   1478.0299     -31399.549      0.049540999   -31193.165     -996.56892    
Loop time of 0.003041 on 16 procs for 1 steps with 1081 atoms

run 1 pre yes post no
PPPM initialization ...
  using 12-bit tables for long-range coulomb (src/kspace.cpp:342)
  G vector (1/distance) = 0.34497565
  grid = 40 40 40
  stencil order = 5
  estimated absolute RMS force accuracy = 0.00013990511
  estimated relative force accuracy = 9.7158722e-06
  using double precision FFTW3
  3d grid and FFT values/proc = 15979 4800
Generated 0 of 21 mixed pair_coeff terms from geometric mixing rule
Per MPI rank memory allocation (min/avg/max) = 9.777 | 9.831 | 9.893 Mbytes
   Step          Temp          E_pair         E_mol          TotEng         Press     
        24   1478.0299     -31399.549      0.049540999   -31193.165     -996.56892    
        25   1502.5638     -31400.22       0.0011763143  -31190.46      -793.19873    
Loop time of 0.00305187 on 16 procs for 1 steps with 1081 atoms

run 1 pre yes post no
PPPM initialization ...
  using 12-bit tables for long-range coulomb (src/kspace.cpp:342)
  G vector (1/distance) = 0.34497565
  grid = 40 40 40
  stencil order = 5
  estimated absolute RMS force accuracy = 0.00013990511
  estimated relative force accuracy = 9.7158722e-06
  using double precision FFTW3
  3d grid and FFT values/proc = 15979 4800
Generated 0 of 21 mixed pair_coeff terms from geometric mixing rule
Per MPI rank memory allocation (min/avg/max) = 9.777 | 9.831 | 9.893 Mbytes
   Step          Temp          E_pair         E_mol          TotEng         Press     
        25   1502.5638     -31400.22       0.0011763143  -31190.46      -793.19873    
        26   1502.1467     -31400.928      0.012077669   -31191.214     -821.34074    
Loop time of 0.00306413 on 16 procs for 1 steps with 1081 atoms

run 1 pre yes post no
PPPM initialization ...
  using 12-bit tables for long-range coulomb (src/kspace.cpp:342)
  G vector (1/distance) = 0.34497565
  grid = 40 40 40
  stencil order = 5
  estimated absolute RMS force accuracy = 0.00013990511
  estimated relative force accuracy = 9.7158722e-06
  using double precision FFTW3
  3d grid and FFT values/proc = 15979 4800
Generated 0 of 21 mixed pair_coeff terms from geometric mixing rule
Per MPI rank memory allocation (min/avg/max) = 9.777 | 9.831 | 9.893 Mbytes
   Step          Temp          E_pair         E_mol          TotEng         Press     
        26   1502.1467     -31400.928      0.012077669   -31191.214     -821.34074    
        27   1510.4058     -31401.583      0.019894548   -31190.709     -775.25624    
Loop time of 0.00305124 on 16 procs for 1 steps with 1081 atoms

run 1 pre yes post no
PPPM initialization ...
  using 12-bit tables for long-range coulomb (src/kspace.cpp:342)
  G vector (1/distance) = 0.34497565
  grid = 40 40 40
  stencil order = 5
  estimated absolute RMS force accuracy = 0.00013990511
  estimated relative force accuracy = 9.7158722e-06
  using double precision FFTW3
  3d grid and FFT values/proc = 15979 4800
Generated 0 of 21 mixed pair_coeff terms from geometric mixing rule
Per MPI rank memory allocation (min/avg/max) = 9.777 | 9.831 | 9.893 Mbytes
   Step          Temp          E_pair         E_mol          TotEng         Press     
        27   1510.4058     -31401.583      0.019894548   -31190.709     -775.25624    
        28   1513.5283     -31402.114      0.0021608966  -31190.821     -774.61992    
Loop time of 0.00304947 on 16 procs for 1 steps with 1081 atoms

run 1 pre yes post no
PPPM initialization ...
  using 12-bit tables for long-range coulomb (src/kspace.cpp:342)
  G vector (1/distance) = 0.34497565
  grid = 40 40 40
  stencil order = 5
  estimated absolute RMS force accuracy = 0.00013990511
  estimated relative force accuracy = 9.7158722e-06
  using double precision FFTW3
  3d grid and FFT values/proc = 15979 4800
Generated 0 of 21 mixed pair_coeff terms from geometric mixing rule
Per MPI rank memory allocation (min/avg/max) = 9.777 | 9.831 | 9.893 Mbytes
   Step          Temp          E_pair         E_mol          TotEng         Press     
        28   1513.5283     -31402.114      0.0021608966  -31190.821     -774.61992    
        29   1521.0824     -31402.438      0.016279771   -31190.077     -711.54573    
Loop time of 0.00301832 on 16 procs for 1 steps with 1081 atoms

run 1 pre yes post no
PPPM initialization ...
  using 12-bit tables for long-range coulomb (src/kspace.cpp:342)
  G vector (1/distance) = 0.34497565
  grid = 40 40 40
  stencil order = 5
  estimated absolute RMS force accuracy = 0.00013990511
  estimated relative force accuracy = 9.7158722e-06
  using double precision FFTW3
  3d grid and FFT values/proc = 15979 4800
Generated 0 of 21 mixed pair_coeff terms from geometric mixing rule
Per MPI rank memory allocation (min/avg/max) = 9.777 | 9.831 | 9.893 Mbytes
   Step          Temp          E_pair         E_mol          TotEng         Press     
        29   1521.0824     -31402.438      0.016279771   -31190.077     -711.54573    
        30   1516.5749     -31402.486      0.089920566   -31190.681     -708.32942    
Loop time of 0.00303752 on 16 procs for 1 steps with 1081 atoms

run 1 pre yes post no
PPPM initialization ...
  using 12-bit tables for long-range coulomb (src/kspace.cpp:342)
  G vector (1/distance) = 0.34497565
  grid = 40 40 40
  stencil order = 5
  estimated absolute RMS force accuracy = 0.00013990511
  estimated relative force accuracy = 9.7158722e-06
  using double precision FFTW3
  3d grid and FFT values/proc = 15979 4800
Generated 0 of 21 mixed pair_coeff terms from geometric mixing rule
Per MPI rank memory allocation (min/avg/max) = 9.777 | 9.831 | 9.893 Mbytes
   Step          Temp          E_pair         E_mol          TotEng         Press     
        30   1516.5749     -31402.486      0.089920566   -31190.681     -708.32942    
        31   1512.6615     -31402.215      0.15311986    -31190.892     -620.8832     
Loop time of 0.00313076 on 16 procs for 1 steps with 1081 atoms

run 1 pre yes post no
PPPM initialization ...
  using 12-bit tables for long-range coulomb (src/kspace.cpp:342)
  G vector (1/distance) = 0.34497565
  grid = 40 40 40
  stencil order = 5
  estimated absolute RMS force accuracy = 0.00013990511
  estimated relative force accuracy = 9.7158722e-06
  using double precision FFTW3
  3d grid and FFT values/proc = 15979 4800
Generated 0 of 21 mixed pair_coeff terms from geometric mixing rule
Per MPI rank memory allocation (min/avg/max) = 9.777 | 9.831 | 9.893 Mbytes
   Step          Temp          E_pair         E_mol          TotEng         Press     
        31   1512.6615     -31402.215      0.15311986    -31190.892     -620.8832     
        32   1510.7722     -31401.633      0.13210552    -31190.596     -428.14147    
Loop time of 0.0030551 on 16 procs for 1 steps with 1081 atoms

run 1 pre yes post no
PPPM initialization ...
  using 12-bit tables for long-range coulomb (src/kspace.cpp:342)
  G vector (1/distance) = 0.34497565
  grid = 40 40 40
  stencil order = 5
  estimated absolute RMS force accuracy = 0.00013990511
  estimated relative force accuracy = 9.7158722e-06
  using double precision FFTW3
  3d grid and FFT values/proc = 15979 4800
Generated 0 of 21 mixed pair_coeff terms from geometric mixing rule
Per MPI rank memory allocation (min/avg/max) = 9.777 | 9.831 | 9.893 Mbytes
   Step          Temp          E_pair         E_mol          TotEng         Press     
        32   1510.7722     -31401.633      0.13210552    -31190.596     -428.14147    
        33   1506.863      -31400.786      0.055517881   -31190.371     -189.11544    
Loop time of 0.00308914 on 16 procs for 1 steps with 1081 atoms

Total wall time: 0:00:00
