LAMMPS description

    1081          atoms
       0          bonds
       0         angles
       0      dihedrals
       0      impropers

       7     atom types
       1     bond types
       0    angle types
       0 dihedral types
       0 improper types


  0.0000000      25.319000     xlo xhi
  0.0000000      25.319000     ylo yhi
  0.0000000      25.319000     zlo zhi

 Atoms

      1      1      7      0.0000000      7.0220000      9.2030000     11.0840000
      2      1      4      0.0000000      8.1760000     10.5980000     10.4150000
      3      2      5      0.0000000      8.2780000      6.2480000     10.6220000
      4      3      2      0.0000000      1.9910000      1.9900000      2.0610000
      5      4      1      0.0000000     25.2820000     25.3110000      0.0130000
      6      5      5      0.0000000      1.9670000      1.8230000     25.2790000
      7      6      5      0.0000000      2.0820000     25.1150000      1.8420000
      8      7      5      0.0000000     25.2890000      1.7810000      2.0510000
      9      8      2      0.0000000     10.4690000     10.3780000     10.6670000
     10      9      1      0.0000000      8.5640000      8.4250000      8.4330000
     11     10      5      0.0000000     10.6610000     10.5260000      8.4190000
     12     11      5      0.0000000      6.4500000     78.6900000    510.4600000
     13     12      5      0.0000000     10.3660000      8.2730000     10.5950000
     14     13      2      0.0000000      6.2240000     10.6760000     10.4520000
     15     14      1      0.0000000      4.0080000      8.4880000      8.2450000
     16     15      5      0.0000000      6.2300000     10.4280000      8.2620000
     17     16      5      0.0000000      4.1320000     10.6130000     10.4800000
     18     17      2      0.0000000      2.0650000     10.6230000     10.5110000
     19     18      1      0.0000000      0.2010000      8.1760000      8.1590000
     20     19      5      0.0000000      1.9330000     10.3810000      8.2690000
     21     20      5      0.0000000      2.0080000      8.5900000     10.4260000
     22     21      5      0.0000000     25.2810000     10.5200000     10.6740000
     23     22      2      0.0000000     10.5920000      6.3140000     10.6260000
     24     23      1      0.0000000      8.7370000      4.2930000      8.4480000
     25     24      5      0.0000000     10.6540000      6.6110000      8.5550000
     26     25      5      0.0000000     10.4680000      4.2950000     10.4810000
     27     26      2      0.0000000      6.2720000      6.2310000     10.3730000
     28     27      1      0.0000000      4.1990000      4.1980000      8.2480000
     29     28      5      0.0000000      6.2630000      6.3650000      8.3520000
     30     29      5      0.0000000      6.1470000      4.2140000     10.1650000
     31     30      5      0.0000000      4.2360000      6.5310000     10.3590000
     32     31      2      0.0000000      2.1560000      6.3150000     10.4950000
     33     32      1      0.0000000      0.0060000      4.0780000      8.3510000
     34     33      5      0.0000000      2.0550000      6.3910000      8.3080000
     35     34      5      0.0000000      2.1450000      4.1450000     10.5350000
     36     35      5      0.0000000      0.1240000      6.2330000     10.4020000
     37     36      2      0.0000000     10.5560000      2.2070000     10.5070000
     38     37      1      0.0000000      8.7070000     25.1180000      8.2500000
     39     38      5      0.0000000     10.7260000      2.0430000      8.5120000
     40     39      5      0.0000000     10.4790000     25.2770000     10.5180000
     41     40      5      0.0000000      8.3640000      2.1190000     10.8100000
     42     41      2      0.0000000      6.3920000      2.1140000     10.5710000
     43     42      1      0.0000000      4.3490000     25.2850000      8.3910000
     44     43      5      0.0000000      6.5840000      2.0370000      8.2660000
     45     44      5      0.0000000      6.3290000     25.2930000     10.7570000
     46     45      5      0.0000000      4.2620000      2.1110000     10.5530000
     47     46      2      0.0000000      2.1330000      2.1300000     10.5050000
     48     47      1      0.0000000     25.2500000     25.2040000      8.4640000
     49     48      5      0.0000000      2.0880000      2.3550000      8.1980000
     50     49      5      0.0000000      2.3230000      0.0560000     10.4680000
     51     50      5      0.0000000      0.0700000      1.9100000     10.3530000
     52     51      2      0.0000000     10.7970000     10.4310000      6.4230000
     53     52      1      0.0000000      8.6760000      8.3160000      4.2840000
     54     53      5      0.0000000     10.7350000     10.6830000      4.2830000
     55     54      5      0.0000000     10.9970000      8.3550000      6.3640000
     56     55      5      0.0000000      8.5320000     10.2570000      6.3450000
     57     56      2      0.0000000      6.5530000     10.4270000      6.2660000
     58     57      1      0.0000000      4.2070000      8.4580000      4.0060000
     59     58      5      0.0000000      6.3380000     10.4090000      4.2730000
     60     59      5      0.0000000      6.4430000      8.3500000      6.2510000
     61     60      5      0.0000000      4.1920000     10.5520000      6.3720000
     62     61      2      0.0000000      2.1100000     10.4890000      6.2990000
     63     62      1      0.0000000      0.0970000      8.5570000      4.0380000
     64     63      5      0.0000000      2.1140000     10.3990000      4.0940000
     65     64      5      0.0000000      2.0750000      8.2540000      6.1700000
     66     65      5      0.0000000     25.1800000     10.4030000      6.2010000
     67     66      2      0.0000000     10.7270000      6.3420000      6.4010000
     68     67      1      0.0000000      8.4450000      4.2820000      4.1330000
     69     68      5      0.0000000     10.6770000      6.3500000      4.3730000
     70     69      5      0.0000000     10.7820000      4.0860000      6.4960000
     71     70      5      0.0000000      8.6310000      6.4200000      6.4610000
     72     71      2      0.0000000      6.2440000      6.3410000      6.2190000
     73     72      1      0.0000000      4.1750000      4.1510000      4.1990000
     74     73      5      0.0000000      6.1130000      6.3350000      4.1550000
     75     74      5      0.0000000      6.5510000      4.2900000      6.1720000
     76     75      2      0.0000000      1.9410000      6.1720000      6.1450000
     77     76      1      0.0000000     25.1520000      4.0330000      4.2020000
     78     77      5      0.0000000      2.1270000      6.0080000      4.0210000
     79     78      5      0.0000000      2.1240000      4.0520000      6.1370000
     80     79      5      0.0000000     25.2820000      6.1950000      6.3700000
     81     80      2      0.0000000     10.6270000      2.0080000      6.1880000
     82     81      1      0.0000000      8.4490000     25.2900000      3.9810000
     83     82      5      0.0000000     10.6200000      2.1780000      4.1190000
     84     83      5      0.0000000     10.6700000     25.3060000      6.0420000
     85     84      5      0.0000000      8.5050000      1.9150000      6.2020000
     86     85      2      0.0000000      6.4970000      2.0370000      6.3070000
     87     86      1      0.0000000      4.4000000     24.9740000      4.4610000
     88     87      5      0.0000000      6.2840000      1.9860000      4.1390000
     89     88      5      0.0000000      6.5090000      0.0730000      6.2520000
     90     89      5      0.0000000      4.2980000      1.8690000      6.2870000
     91     90      2      0.0000000      2.0640000      1.9680000      6.2060000
     92     91      1      0.0000000      0.0700000     25.0160000      4.1470000
     93     92      5      0.0000000      2.1420000      1.9420000      4.1340000
     94     93      5      0.0000000      1.9990000     25.2500000      6.3590000
     95     94      5      0.0000000     25.2450000      1.7820000      6.3350000
     96     95      2      0.0000000     10.6240000     10.5920000      2.3140000
     97     96      1      0.0000000      8.6840000      8.6360000      0.1150000
     98     97      5      0.0000000     10.5760000     10.4750000      0.0680000
     99     98      5      0.0000000     10.6790000      8.3450000      2.2240000
    100     99      5      0.0000000      8.4560000     10.5690000      2.2560000
    101    100      2      0.0000000      6.2910000     10.5080000      2.0850000
    102    101      1      0.0000000      4.3400000      8.2030000     25.2940000
    103    102      5      0.0000000      6.2780000     10.5340000      0.0400000
    104    103      5      0.0000000      6.3640000      8.2660000      1.9300000
    105    104      5      0.0000000      4.1480000     10.5500000      2.0010000
    106    105      2      0.0000000      1.9690000     10.5270000      2.0960000
    107    106      1      0.0000000      0.0780000      8.4380000     25.2970000
    108    107      5      0.0000000      1.7310000     10.3930000     25.2900000
    109    108      5      0.0000000      2.0020000      8.5140000      1.9750000
    110    109      5      0.0000000     25.1180000     10.7030000      2.0750000
    111    110      2      0.0000000     10.6660000      6.3300000      2.0930000
    112    111      1      0.0000000      8.2640000      4.0820000     25.1490000
    113    112      5      0.0000000     10.8300000      6.3610000      0.0530000
    114    113      5      0.0000000     10.5180000      4.1760000      2.0110000
    115    114      5      0.0000000      8.4420000      6.5100000      2.3630000
    116    115      2      0.0000000      6.1970000      6.2240000      1.9680000
    117    116      1      0.0000000      4.3550000      3.9470000     25.2100000
    118    117      5      0.0000000      6.2730000      6.2400000     25.1960000
    119    118      5      0.0000000      6.2940000      4.2450000      1.8800000
    120    119      5      0.0000000      4.1590000      6.1710000      1.9610000
    121    120      2      0.0000000      2.1340000      6.1840000      2.0830000
    122    121      1      0.0000000     25.2170000      4.2070000     25.1410000
    123    122      5      0.0000000      2.0490000      6.1190000     25.2870000
    124    123      5      0.0000000      2.1130000      4.0370000      2.1690000
    125    124      5      0.0000000     25.2870000      6.3020000      2.1900000
    126    125      2      0.0000000     10.5460000      2.0110000      2.0350000
    127    126      1      0.0000000      8.4690000     25.2690000     25.2390000
    128    127      5      0.0000000     10.6960000      1.8250000      0.0310000
    129    128      5      0.0000000     10.5860000     25.3070000      2.4540000
    130    129      5      0.0000000      8.4190000      2.1400000      1.8040000
    131    130      2      0.0000000      6.2070000      1.9710000      1.9840000
    132    131      1      0.0000000      4.0470000      0.0750000      0.0310000
    133    132      5      0.0000000      6.2910000      1.8920000     25.2500000
    134    133      5      0.0000000      6.2410000     25.2100000      2.3240000
    135    134      5      0.0000000      4.2370000      2.0910000      1.9580000
    136    135      5      0.0000000      4.1410000      6.1140000      6.2000000
    137    136      2      0.0000000     14.6890000     14.5540000     14.7690000
    138    137      1      0.0000000     12.6900000     12.5470000     12.5920000
    139    138      5      0.0000000     14.7570000     14.3380000     12.6080000
    140    139      5      0.0000000     14.9010000     12.5450000     14.7020000
    141    140      5      0.0000000     12.5370000     14.4910000     14.8370000
    142    141      2      0.0000000     23.3740000     23.1030000     23.2410000
    143    142      1      0.0000000     21.0670000     21.0480000     20.9150000
    144    143      5      0.0000000     23.4100000     23.2700000     21.0110000
    145    144      5      0.0000000     23.3210000     20.8450000     23.1910000
    146    145      5      0.0000000     21.1670000     22.8910000     23.2470000
    147    146      2      0.0000000     19.0370000     23.0530000     23.2290000
    148    147      1      0.0000000     16.8440000     21.0080000     21.0550000
    149    148      5      0.0000000     19.2080000     23.1290000     21.0450000
    150    149      5      0.0000000     18.7120000     21.0500000     23.2520000
    151    150      5      0.0000000     16.7540000     23.2750000     23.2970000
    152    151      2      0.0000000     14.7610000     23.1190000     23.1370000
    153    152      1      0.0000000     12.4480000     21.2140000     21.2140000
    154    153      5      0.0000000     14.9950000     23.0810000     21.0400000
    155    154      5      0.0000000     14.5910000     21.0210000     23.1110000
    156    155      5      0.0000000     12.5290000     22.8730000     23.1500000
    157    156      2      0.0000000     23.2260000     18.9300000     23.1190000
    158    157      1      0.0000000     21.0980000     16.9400000     21.2690000
    159    158      5      0.0000000     23.3330000     19.0720000     21.1060000
    160    159      5      0.0000000     23.3110000     16.8380000     22.9370000
    161    160      5      0.0000000     20.9650000     18.9820000     23.1860000
    162    161      2      0.0000000     18.8840000     19.0260000     23.1480000
    163    162      1      0.0000000     17.0210000     16.8030000     21.0790000
    164    163      5      0.0000000     18.7350000     19.1070000     20.9090000
    165    164      5      0.0000000     19.0720000     16.8990000     23.0240000
    166    165      5      0.0000000     16.8200000     19.0420000     23.2270000
    167    166      2      0.0000000     14.7650000     19.1070000     23.0150000
    168    167      1      0.0000000     12.4560000     16.8540000     21.0810000
    169    168      5      0.0000000     14.9360000     19.0960000     21.0300000
    170    169      5      0.0000000     14.9600000     16.9020000     23.1210000
    171    170      5      0.0000000     12.7130000     18.9130000     23.0360000
    172    171      2      0.0000000     23.1160000     14.6860000     23.1740000
    173    172      1      0.0000000     20.9530000     12.5960000     21.1680000
    174    173      5      0.0000000     23.2900000     14.7110000     21.2040000
    175    174      5      0.0000000     23.0380000     12.7070000     23.2880000
    176    175      5      0.0000000     21.0080000     14.9130000     23.0490000
    177    176      2      0.0000000     18.9760000     14.8670000     23.0950000
    178    177      1      0.0000000     16.8430000     12.5760000     21.0240000
    179    178      5      0.0000000     18.9240000     14.8920000     21.0790000
    180    179      5      0.0000000     19.0480000     12.7390000     23.0590000
    181    180      5      0.0000000     16.7760000     14.6520000     23.1110000
    182    181      2      0.0000000     14.7800000     14.5960000     23.1040000
    183    182      1      0.0000000     12.5110000     12.3560000     21.3180000
    184    183      5      0.0000000     14.5850000     14.4570000     21.0040000
    185    184      5      0.0000000     14.8730000     12.5550000     23.3680000
    186    185      5      0.0000000     12.6480000     14.7920000     23.2750000
    187    186      2      0.0000000     23.3960000     23.1460000     18.8900000
    188    187      1      0.0000000     20.9860000     21.2920000     16.6680000
    189    188      5      0.0000000     23.2990000     23.1110000     16.7530000
    190    189      5      0.0000000     23.3010000     21.0900000     19.0560000
    191    190      5      0.0000000     21.1370000     23.1560000     18.7880000
    192    191      2      0.0000000     19.0480000     23.0260000     18.9520000
    193    192      1      0.0000000     16.8740000     20.9640000     17.0760000
    194    193      5      0.0000000     18.9090000     23.0190000     16.9270000
    195    194      5      0.0000000     19.1310000     21.0550000     18.8450000
    196    195      5      0.0000000     16.9260000     23.2720000     19.0770000
    197    196      2      0.0000000     14.7590000     23.1790000     18.9090000
    198    197      1      0.0000000     12.8950000     21.1640000     16.8740000
    199    198      5      0.0000000     14.7300000     23.1420000     16.9540000
    200    199      5      0.0000000     14.9530000     20.9100000     18.6170000
    201    200      5      0.0000000     12.5660000     23.0400000     18.8940000
    202    201      2      0.0000000     23.2930000     18.9670000     18.8950000
    203    202      1      0.0000000     21.2240000     16.7600000     17.0680000
    204    203      5      0.0000000     23.4050000     18.9130000     16.9450000
    205    204      5      0.0000000     23.1970000     16.7680000     18.7540000
    206    205      5      0.0000000     21.2180000     18.9750000     19.0310000
    207    206      2      0.0000000     19.1120000     19.0430000     18.8420000
    208    207      1      0.0000000     17.0140000     16.9720000     16.9230000
    209    208      5      0.0000000     18.8140000     19.2840000     16.7450000
    210    209      5      0.0000000     19.2330000     17.0020000     18.7870000
    211    210      5      0.0000000     17.0180000     19.1070000     18.9060000
    212    211      2      0.0000000     14.9760000     18.8870000     19.0560000
    213    212      1      0.0000000     12.4010000     16.9110000     16.8930000
    214    213      5      0.0000000     15.0120000     18.9180000     16.9320000
    215    214      5      0.0000000     15.1120000     16.9110000     19.1760000
    216    215      5      0.0000000     12.6180000     18.7710000     19.0160000
    217    216      2      0.0000000     23.1570000     14.7300000     19.1180000
    218    217      1      0.0000000     20.9520000     12.6710000     16.9460000
    219    218      5      0.0000000     23.2470000     14.7410000     16.9860000
    220    219      5      0.0000000     23.0270000     12.5700000     18.8800000
    221    220      5      0.0000000     21.2020000     14.7470000     19.2310000
    222    221      2      0.0000000     18.8770000     14.8220000     19.0650000
    223    222      1      0.0000000     16.8740000     12.6510000     16.9410000
    224    223      5      0.0000000     18.8990000     14.7520000     16.9270000
    225    224      5      0.0000000     18.9940000     12.7330000     19.1160000
    226    225      5      0.0000000     16.8410000     14.8610000     18.8890000
    227    226      2      0.0000000     14.8110000     14.7150000     18.9870000
    228    227      1      0.0000000     12.5240000     12.3320000     16.8910000
    229    228      5      0.0000000     14.5500000     14.9060000     16.7640000
    230    229      5      0.0000000     14.9740000     12.4680000     18.9740000
    231    230      5      0.0000000     12.6110000     14.7810000     19.0590000
    232    231      2      0.0000000     23.3160000     23.0680000     14.6590000
    233    232      1      0.0000000     21.1600000     20.9400000     12.7440000
    234    233      5      0.0000000     23.1880000     23.3430000     12.5270000
    235    234      5      0.0000000     23.2070000     20.9200000     14.5450000
    236    235      5      0.0000000     21.0380000     22.9860000     14.7550000
    237    236      2      0.0000000     18.9460000     23.1600000     14.7690000
    238    237      1      0.0000000     16.8020000     21.0070000     12.6460000
    239    238      5      0.0000000     18.9990000     23.0690000     12.6070000
    240    239      5      0.0000000     18.8100000     21.0870000     14.5950000
    241    240      5      0.0000000     16.7780000     23.3160000     14.7310000
    242    241      2      0.0000000     14.7270000     23.1560000     14.7530000
    243    242      1      0.0000000     12.7590000     21.0370000     12.7710000
    244    243      5      0.0000000     14.6610000     23.0630000     12.6090000
    245    244      5      0.0000000     14.7550000     20.9540000     14.7050000
    246    245      5      0.0000000     12.6660000     23.0720000     14.6070000
    247    246      2      0.0000000     23.1210000     18.9350000     14.8240000
    248    247      1      0.0000000     21.1660000     16.8960000     12.5650000
    249    248      5      0.0000000     22.9620000     18.7380000     12.5930000
    250    249      5      0.0000000     23.0480000     16.8000000     14.7210000
    251    250      5      0.0000000     21.1870000     18.8510000     15.1330000
    252    251      2      0.0000000     18.7980000     18.9660000     14.7010000
    253    252      1      0.0000000     16.8140000     16.8420000     12.8330000
    254    253      5      0.0000000     19.1020000     19.0430000     12.7470000
    255    254      5      0.0000000     18.9740000     16.7860000     14.6730000
    256    255      5      0.0000000     16.7420000     18.8380000     14.5620000
    257    256      2      0.0000000     14.6490000     18.8530000     14.7720000
    258    257      1      0.0000000     12.6950000     16.7380000     12.4720000
    259    258      5      0.0000000     14.7190000     18.8950000     12.5590000
    260    259      5      0.0000000     14.6430000     16.6960000     14.6400000
    261    260      5      0.0000000     12.7010000     19.0560000     14.8040000
    262    261      2      0.0000000     23.0730000     14.6810000     14.9280000
    263    262      1      0.0000000     21.2820000     12.6050000     12.5450000
    264    263      5      0.0000000     23.1920000     14.6840000     12.4360000
    265    264      5      0.0000000     23.0660000     12.4380000     14.6560000
    266    265      5      0.0000000     20.9970000     14.5510000     15.0390000
    267    266      2      0.0000000     19.0400000     14.7320000     14.8370000
    268    267      1      0.0000000     16.7410000     12.5250000     13.0460000
    269    268      5      0.0000000     19.2530000     14.7240000     12.7410000
    270    269      5      0.0000000     18.9900000     12.6290000     14.7580000
    271    270      5      0.0000000     16.8540000     14.8500000     14.8780000
    272    271      2      0.0000000      2.0890000     14.6730000     14.7450000
    273    272      1      0.0000000     25.1930000     12.6260000     12.4060000
    274    273      5      0.0000000      2.1050000     14.6380000     12.5410000
    275    274      5      0.0000000      2.1650000     12.6020000     14.6990000
    276    275      5      0.0000000      0.0310000     14.7900000     14.7820000
    277    276      2      0.0000000     10.4250000     23.1190000     23.1100000
    278    277      1      0.0000000      8.2940000     20.9640000     21.1840000
    279    278      5      0.0000000     10.6300000     23.3820000     21.0020000
    280    279      5      0.0000000     10.3550000     21.0450000     23.0540000
    281    280      5      0.0000000      8.3210000     23.2500000     23.1310000
    282    281      2      0.0000000      6.2730000     23.1270000     23.0770000
    283    282      1      0.0000000      4.0830000     21.0100000     21.2600000
    284    283      5      0.0000000      6.2400000     22.8070000     21.0500000
    285    284      5      0.0000000      6.3530000     21.0320000     23.3430000
    286    285      5      0.0000000      4.1810000     23.1540000     22.9880000
    287    286      2      0.0000000      2.1640000     23.2330000     23.2790000
    288    287      1      0.0000000      0.1820000     21.1310000     21.1040000
    289    288      5      0.0000000      2.0120000     23.0100000     21.1230000
    290    289      5      0.0000000      2.2870000     20.8930000     23.1080000
    291    290      5      0.0000000      0.0580000     23.1330000     23.3770000
    292    291      2      0.0000000     10.5060000     18.8850000     23.2480000
    293    292      1      0.0000000      8.4510000     16.8810000     21.2980000
    294    293      5      0.0000000     10.5950000     18.6110000     21.2260000
    295    294      5      0.0000000     10.5350000     16.7390000     23.5810000
    296    295      5      0.0000000      8.4050000     18.9580000     23.1180000
    297    296      2      0.0000000      6.3100000     18.7300000     23.1870000
    298    297      1      0.0000000      4.3100000     16.6140000     21.1110000
    299    298      5      0.0000000      6.0780000     18.7220000     21.1810000
    300    299      5      0.0000000      6.4490000     16.7270000     23.0740000
    301    300      5      0.0000000      4.1560000     18.7900000     23.3460000
    302    301      2      0.0000000      1.9450000     18.8340000     23.2130000
    303    302      1      0.0000000      0.1720000     16.9410000     21.0420000
    304    303      5      0.0000000      1.8910000     18.9460000     21.0710000
    305    304      5      0.0000000      2.0690000     16.7750000     23.0870000
    306    305      5      0.0000000     25.2890000     18.8510000     23.3750000
    307    306      2      0.0000000     10.5300000     14.5990000     23.3600000
    308    307      1      0.0000000      8.5350000     12.7080000     21.2500000
    309    308      5      0.0000000     10.4710000     14.5940000     21.2190000
    310    309      5      0.0000000     10.5180000     12.4860000     23.0450000
    311    310      5      0.0000000      8.4620000     14.6580000     23.1950000
    312    311      2      0.0000000      6.4790000     14.7300000     23.2040000
    313    312      1      0.0000000      4.3440000     12.4440000     21.1830000
    314    313      5      0.0000000      6.3920000     14.5430000     21.2100000
    315    314      5      0.0000000      6.4870000     12.5400000     23.2510000
    316    315      5      0.0000000      4.3920000     14.8960000     23.3490000
    317    316      2      0.0000000      2.1420000     14.7210000     23.2560000
    318    317      1      0.0000000     25.2700000     12.3730000     21.1240000
    319    318      5      0.0000000      2.3150000     14.7250000     21.1290000
    320    319      5      0.0000000      2.3440000     12.6420000     23.2070000
    321    320      5      0.0000000      0.0230000     14.7240000     23.3540000
    322    321      2      0.0000000     10.5670000     22.9970000     18.9120000
    323    322      1      0.0000000      8.5280000     20.9820000     17.0770000
    324    323      5      0.0000000     10.6280000     22.7790000     16.8840000
    325    324      5      0.0000000     10.5140000     21.0840000     19.2520000
    326    325      5      0.0000000      8.4500000     23.0570000     18.9470000
    327    326      2      0.0000000      6.3060000     23.0920000     19.0590000
    328    327      1      0.0000000      4.3250000     20.7290000     16.9620000
    329    328      5      0.0000000      6.2340000     23.1050000     17.1010000
    330    329      5      0.0000000      6.3740000     20.8880000     19.1390000
    331    330      5      0.0000000      4.2060000     23.3120000     19.2140000
    332    331      2      0.0000000      2.2080000     23.3050000     19.0770000
    333    332      1      0.0000000      0.1510000     21.0400000     16.8550000
    334    333      5      0.0000000      2.3100000     23.2030000     16.9240000
    335    334      5      0.0000000      2.2030000     21.1950000     18.9940000
    336    335      5      0.0000000      0.0180000     23.3450000     18.9500000
    337    336      2      0.0000000     10.5150000     18.9800000     19.0630000
    338    337      1      0.0000000      8.4980000     16.8350000     16.7970000
    339    338      5      0.0000000     10.2830000     19.1450000     16.8260000
    340    339      5      0.0000000     10.4970000     16.7760000     18.9680000
    341    340      5      0.0000000      8.3550000     18.8480000     19.1080000
    342    341      2      0.0000000      6.2850000     18.8060000     18.9720000
    343    342      1      0.0000000      4.2290000     16.5340000     17.1460000
    344    343      5      0.0000000      6.3680000     18.7570000     16.9060000
    345    344      5      0.0000000      6.1760000     16.6060000     19.0730000
    346    345      5      0.0000000      4.1690000     18.8810000     19.0400000
    347    346      2      0.0000000      2.1720000     18.8190000     19.1130000
    348    347      1      0.0000000     25.2670000     16.7160000     16.8520000
    349    348      5      0.0000000      2.0790000     18.8560000     16.9250000
    350    349      5      0.0000000      2.2320000     16.6710000     19.0530000
    351    350      5      0.0000000      0.0510000     18.7400000     19.0130000
    352    351      2      0.0000000     10.5710000     14.7280000     19.1190000
    353    352      1      0.0000000      8.4490000     12.6390000     17.0180000
    354    353      5      0.0000000     10.3810000     14.4340000     16.9460000
    355    354      5      0.0000000     10.6160000     12.4040000     19.0360000
    356    355      5      0.0000000      8.4530000     14.7230000     18.9750000
    357    356      2      0.0000000      6.3380000     14.5160000     18.8710000
    358    357      1      0.0000000      4.2860000     12.4260000     16.8340000
    359    358      5      0.0000000      6.4060000     14.9020000     16.8080000
    360    359      5      0.0000000      6.4890000     12.4200000     18.8350000
    361    360      5      0.0000000      4.3490000     14.4270000     18.9400000
    362    361      2      0.0000000      2.1940000     14.3910000     19.1030000
    363    362      1      0.0000000      0.0880000     12.6430000     16.7400000
    364    363      5      0.0000000      2.0800000     14.4250000     16.8490000
    365    364      5      0.0000000      2.2620000     12.4190000     18.9880000
    366    365      5      0.0000000      0.1090000     14.4370000     19.1750000
    367    366      2      0.0000000     10.5660000     23.1870000     14.6740000
    368    367      1      0.0000000      8.5940000     21.0680000     12.6550000
    369    368      5      0.0000000     10.5250000     23.0410000     12.7170000
    370    369      5      0.0000000     10.4970000     21.0220000     14.5340000
    371    370      5      0.0000000      8.3570000     23.0740000     14.8530000
    372    371      2      0.0000000      6.3030000     23.0670000     14.8730000
    373    372      1      0.0000000      4.1780000     20.7990000     12.6940000
    374    373      5      0.0000000      6.4550000     23.1010000     12.7540000
    375    374      5      0.0000000      6.2640000     20.9990000     14.8080000
    376    375      5      0.0000000      4.1340000     23.1120000     14.7680000
    377    376      2      0.0000000      2.0720000     23.1360000     14.7850000
    378    377      1      0.0000000     25.2710000     21.0660000     12.6470000
    379    378      5      0.0000000      2.3180000     23.2080000     12.5900000
    380    379      5      0.0000000      1.8160000     21.0870000     14.8550000
    381    380      5      0.0000000     25.3120000     23.0830000     14.6850000
    382    381      2      0.0000000     10.6160000     18.9640000     14.6550000
    383    382      1      0.0000000      8.1650000     16.8310000     12.8730000
    384    383      5      0.0000000     10.4510000     18.7570000     12.5960000
    385    384      5      0.0000000     10.7700000     16.7700000     14.7190000
    386    385      5      0.0000000      8.3540000     18.9630000     14.4930000
    387    386      2      0.0000000      6.3220000     18.9850000     14.8800000
    388    387      1      0.0000000      4.3790000     16.7230000     12.6600000
    389    388      5      0.0000000      6.1490000     18.9830000     12.6840000
    390    389      5      0.0000000      6.0930000     16.9050000     14.8630000
    391    390      5      0.0000000      4.0510000     19.0510000     14.7490000
    392    391      2      0.0000000      2.0990000     18.7430000     14.7830000
    393    392      1      0.0000000     25.0330000     16.6740000     12.9910000
    394    393      5      0.0000000      2.2280000     18.9410000     12.8250000
    395    394      5      0.0000000      2.1680000     16.5760000     14.8220000
    396    395      5      0.0000000     25.2830000     18.7350000     14.8640000
    397    396      2      0.0000000     10.4960000     14.6270000     14.7510000
    398    397      1      0.0000000      8.7010000     12.7160000     12.6550000
    399    398      5      0.0000000     10.3180000     14.7370000     12.6360000
    400    399      5      0.0000000     10.5470000     12.6140000     14.6470000
    401    400      5      0.0000000      8.4760000     14.8310000     14.7460000
    402    401      2      0.0000000      6.3570000     14.7370000     14.6930000
    403    402      1      0.0000000      4.1580000     12.4150000     12.7100000
    404    403      5      0.0000000      6.4120000     15.0260000     12.5450000
    405    404      5      0.0000000      6.4170000     12.6720000     14.6790000
    406    405      5      0.0000000      4.3580000     14.4690000     14.5040000
    407    406      2      0.0000000     14.6840000      2.0700000     14.8310000
    408    407      1      0.0000000     12.8710000      0.0450000     12.6910000
    409    408      5      0.0000000     14.8860000      2.0420000     12.7750000
    410    409      5      0.0000000     14.5610000     25.2100000     14.9490000
    411    410      5      0.0000000     12.6270000      2.0470000     14.7810000
    412    411      2      0.0000000     23.2470000     10.6080000     23.1800000
    413    412      1      0.0000000     21.2050000      8.5470000     20.9910000
    414    413      5      0.0000000     23.2370000     10.4860000     21.0900000
    415    414      5      0.0000000     23.4130000      8.3850000     23.2860000
    416    415      5      0.0000000     21.1260000     10.6100000     22.9760000
    417    416      2      0.0000000     18.9860000     10.5780000     23.2060000
    418    417      1      0.0000000     16.9140000      8.1160000     21.4140000
    419    418      5      0.0000000     18.8430000     10.5330000     21.1040000
    420    419      5      0.0000000     18.9790000      8.3330000     23.3300000
    421    420      5      0.0000000     16.8550000     10.5570000     23.2500000
    422    421      2      0.0000000     14.7150000     10.5330000     23.2610000
    423    422      1      0.0000000     12.8260000      8.4270000     21.0360000
    424    423      5      0.0000000     14.7230000     10.2390000     21.2540000
    425    424      5      0.0000000     14.7500000      8.4130000     23.2100000
    426    425      5      0.0000000     12.6790000     10.5210000     23.3290000
    427    426      2      0.0000000     23.3240000      6.1640000     23.1270000
    428    427      1      0.0000000     21.2840000      4.3160000     20.9280000
    429    428      5      0.0000000     23.3330000      6.1900000     20.8560000
    430    429      5      0.0000000     23.2120000      4.0560000     23.1310000
    431    430      5      0.0000000     21.2430000      6.2660000     23.0120000
    432    431      2      0.0000000     19.0830000      6.2420000     23.2970000
    433    432      1      0.0000000     17.0100000      4.2430000     21.0750000
    434    433      5      0.0000000     19.0080000      6.5930000     21.0090000
    435    434      5      0.0000000     19.0210000      4.2570000     23.0190000
    436    435      5      0.0000000     16.9420000      6.4130000     23.3410000
    437    436      2      0.0000000     14.8350000      6.2200000     23.4020000
    438    437      1      0.0000000     12.4930000      4.2360000     21.0920000
    439    438      5      0.0000000     15.1990000      6.0420000     21.2140000
    440    439      5      0.0000000     14.7790000      4.2390000     23.2560000
    441    440      5      0.0000000     12.8090000      6.2080000     23.4120000
    442    441      2      0.0000000     23.2260000      2.0200000     23.0770000
    443    442      1      0.0000000     21.0070000     24.9690000     20.9060000
    444    443      5      0.0000000     23.1980000      2.0330000     20.9670000
    445    444      5      0.0000000     23.1720000     25.1860000     23.3150000
    446    445      5      0.0000000     21.0510000      1.9110000     23.1830000
    447    446      2      0.0000000     19.0850000      1.8550000     23.1770000
    448    447      1      0.0000000     16.8770000     25.2380000     21.0460000
    449    448      5      0.0000000     18.9050000      1.8290000     21.0130000
    450    449      5      0.0000000     18.9820000     25.1250000     23.3760000
    451    450      5      0.0000000     16.8100000      2.2280000     23.1710000
    452    451      2      0.0000000     14.7620000      2.1690000     23.1660000
    453    452      1      0.0000000     12.5210000     25.2330000     21.1220000
    454    453      5      0.0000000     14.8420000      1.9440000     21.1030000
    455    454      5      0.0000000     14.6330000     25.2100000     23.0940000
    456    455      5      0.0000000     12.6630000      2.2080000     23.2010000
    457    456      2      0.0000000     23.2250000     10.4370000     18.8710000
    458    457      1      0.0000000     21.0980000      8.5340000     16.8820000
    459    458      5      0.0000000     23.3970000     10.5090000     16.9120000
    460    459      5      0.0000000     23.1890000      8.2320000     18.8480000
    461    460      5      0.0000000     21.0600000     10.3720000     19.1120000
    462    461      2      0.0000000     18.9570000     10.4770000     19.0480000
    463    462      1      0.0000000     16.9500000      8.5510000     17.0700000
    464    463      5      0.0000000     19.1710000     10.5940000     17.0070000
    465    464      5      0.0000000     19.0690000      8.2770000     18.7720000
    466    465      5      0.0000000     16.9970000     10.4700000     18.9250000
    467    466      2      0.0000000     14.9540000     10.3760000     19.1370000
    468    467      1      0.0000000     12.6880000      8.3970000     16.7720000
    469    468      5      0.0000000     15.1100000     10.3750000     16.8450000
    470    469      5      0.0000000     14.6660000      8.4210000     18.8710000
    471    470      5      0.0000000     12.7510000     10.5800000     19.1320000
    472    471      2      0.0000000     23.2430000      6.3040000     18.8610000
    473    472      1      0.0000000     21.1090000      4.2760000     16.9990000
    474    473      5      0.0000000     23.2750000      6.2680000     16.6850000
    475    474      5      0.0000000     23.3080000      4.3090000     18.8370000
    476    475      5      0.0000000     20.9700000      6.1750000     19.0710000
    477    476      2      0.0000000     18.9840000      6.3660000     18.9950000
    478    477      1      0.0000000     16.9590000      4.0820000     16.8300000
    479    478      5      0.0000000     19.1450000      6.1780000     16.8820000
    480    479      5      0.0000000     18.9840000      4.1860000     18.9850000
    481    480      5      0.0000000     16.9170000      6.3070000     18.9100000
    482    481      2      0.0000000     14.8360000      6.2190000     18.8830000
    483    482      1      0.0000000     12.8240000      4.3180000     16.9180000
    484    483      5      0.0000000     14.5900000      6.1190000     16.8970000
    485    484      5      0.0000000     14.9560000      4.1950000     18.9420000
    486    485      5      0.0000000     12.7870000      6.1460000     19.0710000
    487    486      2      0.0000000     23.3070000      2.1410000     18.9560000
    488    487      1      0.0000000     21.0940000      0.1000000     16.9150000
    489    488      5      0.0000000     22.9750000      2.3530000     16.8580000
    490    489      5      0.0000000     23.3390000     25.2560000     18.7930000
    491    490      5      0.0000000     21.0760000      2.1390000     18.9510000
    492    491      2      0.0000000     18.9800000      2.0980000     18.9800000
    493    492      1      0.0000000     16.8690000     25.2080000     16.7520000
    494    493      5      0.0000000     18.6030000      2.2430000     16.9220000
    495    494      5      0.0000000     19.1420000     25.2590000     18.8550000
    496    495      5      0.0000000     16.7930000      1.6590000     18.9520000
    497    496      2      0.0000000     14.8150000      1.9320000     19.0250000
    498    497      1      0.0000000     12.5400000     25.2700000     17.0920000
    499    498      5      0.0000000     14.6740000      2.0380000     16.9420000
    500    499      5      0.0000000     14.6040000     25.1790000     19.0040000
    501    500      5      0.0000000     12.6100000      1.8680000     19.0430000
    502    501      2      0.0000000     23.1940000     10.3680000     14.6750000
    503    502      1      0.0000000     21.2550000      8.2190000     12.5390000
    504    503      5      0.0000000     23.1810000     10.3780000     12.6310000
    505    504      5      0.0000000     23.4710000      8.3740000     14.7350000
    506    505      5      0.0000000     21.1020000     10.5370000     14.7340000
    507    506      2      0.0000000     19.0710000     10.5500000     14.7850000
    508    507      1      0.0000000     17.1310000      8.3880000     12.7210000
    509    508      5      0.0000000     19.0590000     10.3040000     12.6660000
    510    509      5      0.0000000     18.9540000      8.3580000     14.9550000
    511    510      5      0.0000000     17.0150000     10.5680000     14.7540000
    512    511      2      0.0000000     14.9500000     10.3610000     14.6750000
    513    512      1      0.0000000     12.7810000      8.3430000     12.7920000
    514    513      5      0.0000000     15.0930000     10.3270000     12.7310000
    515    514      5      0.0000000     14.8100000      8.3750000     14.6880000
    516    515      5      0.0000000     12.7670000     10.3590000     14.7370000
    517    516      2      0.0000000     23.3240000      6.3480000     14.6530000
    518    517      1      0.0000000     21.2590000      4.0460000     12.5730000
    519    518      5      0.0000000     23.4860000      6.2630000     12.6510000
    520    519      5      0.0000000     23.1710000      4.1180000     14.4360000
    521    520      5      0.0000000     21.1430000      6.7300000     14.5940000
    522    521      2      0.0000000     19.0780000      6.3780000     14.8610000
    523    522      1      0.0000000     16.9690000      4.0200000     12.8340000
    524    523      5      0.0000000     19.0930000      6.4340000     12.8200000
    525    524      5      0.0000000     19.1810000      4.2750000     14.7260000
    526    525      5      0.0000000     16.9520000      6.2880000     15.0570000
    527    526      2      0.0000000     14.8500000      6.3000000     14.7000000
    528    527      1      0.0000000     12.8110000      4.5340000     12.7100000
    529    528      5      0.0000000     15.0150000      6.3020000     12.6110000
    530    529      5      0.0000000     14.8320000      4.2930000     14.7330000
    531    530      5      0.0000000     12.7520000      6.4950000     14.6120000
    532    531      2      0.0000000     23.2400000      1.9980000     14.8010000
    533    532      1      0.0000000     21.0730000     25.1360000     12.4360000
    534    533      5      0.0000000     23.3690000      2.0300000     12.5640000
    535    534      5      0.0000000     23.2290000     25.2300000     14.5490000
    536    535      5      0.0000000     21.1890000      1.9150000     14.8390000
    537    536      2      0.0000000     19.0780000      2.0520000     14.8670000
    538    537      1      0.0000000     16.9350000     24.9400000     12.6620000
    539    538      5      0.0000000     18.9830000      2.0180000     12.7920000
    540    539      5      0.0000000     19.2430000     25.3180000     14.8860000
    541    540      5      0.0000000     16.7470000      2.0890000     14.7740000
    542    541      2      0.0000000      2.0950000      1.9670000     14.7980000
    543    542      1      0.0000000     25.2920000      0.1040000     12.5530000
    544    543      5      0.0000000      2.1980000      1.9210000     12.5440000
    545    544      5      0.0000000      2.1790000     25.3160000     15.0890000
    546    545      5      0.0000000      0.0630000      1.8390000     15.1210000
    547    546      2      0.0000000     10.5740000     10.3390000     23.2880000
    548    547      1      0.0000000      8.4920000      8.3310000     21.0270000
    549    548      5      0.0000000     10.4060000     10.3330000     21.0350000
    550    549      5      0.0000000     10.9220000      8.3880000     23.1880000
    551    550      5      0.0000000      8.5420000     10.5720000     23.5430000
    552    551      2      0.0000000      6.3080000     10.3510000     23.2130000
    553    552      1      0.0000000      4.5380000      8.3790000     21.1500000
    554    553      5      0.0000000      6.3250000     10.2570000     21.0880000
    555    554      5      0.0000000      6.3910000      8.3280000     23.3210000
    556    555      5      0.0000000      4.3430000     10.3930000     23.0570000
    557    556      2      0.0000000      2.2460000     10.4880000     23.1830000
    558    557      1      0.0000000     25.2700000      8.3770000     21.0790000
    559    558      5      0.0000000      2.3340000     10.4670000     21.0930000
    560    559      5      0.0000000      2.1790000      8.5230000     23.1680000
    561    560      5      0.0000000     25.2910000     10.6590000     23.1440000
    562    561      2      0.0000000     10.6810000      6.5010000     23.3230000
    563    562      1      0.0000000      8.5190000      4.1090000     21.1320000
    564    563      5      0.0000000     10.5430000      6.2800000     21.0160000
    565    564      5      0.0000000     10.4420000      4.3140000     23.3640000
    566    565      5      0.0000000      8.4430000      6.2120000     23.1670000
    567    566      2      0.0000000      6.3510000      6.1460000     23.1480000
    568    567      1      0.0000000      4.4460000      4.2320000     21.0110000
    569    568      5      0.0000000      6.5000000      6.4050000     21.2250000
    570    569      5      0.0000000      6.2920000      4.0360000     23.1550000
    571    570      5      0.0000000      4.2270000      6.2950000     23.2050000
    572    571      2      0.0000000      2.1540000      6.3070000     23.1300000
    573    572      1      0.0000000      0.1730000      4.4290000     20.7200000
    574    573      5      0.0000000      2.1790000      6.2600000     21.0020000
    575    574      5      0.0000000      2.2270000      4.2410000     23.2490000
    576    575      5      0.0000000      0.0730000      6.1380000     23.0520000
    577    576      2      0.0000000     10.6290000      2.1410000     23.2170000
    578    577      1      0.0000000      8.4700000     25.1360000     20.9390000
    579    578      5      0.0000000     10.5740000      2.0180000     21.0670000
    580    579      5      0.0000000     10.3950000     25.2550000     23.1780000
    581    580      5      0.0000000      8.5580000      2.0810000     23.1890000
    582    581      2      0.0000000      6.4620000      1.9100000     23.1870000
    583    582      1      0.0000000      4.2380000     25.2470000     21.0180000
    584    583      5      0.0000000      6.3720000      2.0230000     21.1130000
    585    584      5      0.0000000      6.3130000     25.0810000     23.0700000
    586    585      5      0.0000000      4.1220000      1.7460000     23.2120000
    587    586      2      0.0000000      2.0340000      2.0440000     23.1320000
    588    587      1      0.0000000     25.2720000      0.1440000     21.1050000
    589    588      5      0.0000000      1.9430000      2.0430000     21.1840000
    590    589      5      0.0000000      2.1710000     25.2490000     23.1120000
    591    590      5      0.0000000     25.2890000      1.8340000     23.1640000
    592    591      2      0.0000000     10.5740000     10.3450000     18.9870000
    593    592      1      0.0000000      8.6180000      8.5520000     16.8100000
    594    593      5      0.0000000     10.5080000     10.4940000     16.7000000
    595    594      5      0.0000000     10.6620000      8.3650000     19.0400000
    596    595      5      0.0000000      8.4270000     10.3840000     19.0070000
    597    596      2      0.0000000      6.4160000     10.4050000     18.9790000
    598    597      1      0.0000000      4.2040000      8.3700000     16.8270000
    599    598      5      0.0000000      6.4650000     10.5310000     16.7770000
    600    599      5      0.0000000      6.6250000      8.3940000     19.1940000
    601    600      5      0.0000000      4.3600000     10.4700000     18.9060000
    602    601      2      0.0000000      2.2610000     10.5350000     18.8940000
    603    602      1      0.0000000      0.1950000      8.0990000     16.8550000
    604    603      5      0.0000000      2.2540000     10.3650000     16.8680000
    605    604      5      0.0000000      2.3320000      8.2620000     18.9650000
    606    605      5      0.0000000      0.0810000     10.5590000     19.0220000
    607    606      2      0.0000000     10.6000000      6.1910000     18.9340000
    608    607      1      0.0000000      8.4290000      4.0780000     16.7800000
    609    608      5      0.0000000     10.6830000      6.2620000     16.7890000
    610    609      5      0.0000000     10.5160000      4.1720000     19.0220000
    611    610      5      0.0000000      8.5810000      6.2060000     18.8020000
    612    611      2      0.0000000      6.3960000      6.3320000     18.9500000
    613    612      1      0.0000000      4.2390000      3.9300000     16.7750000
    614    613      5      0.0000000      6.3190000      6.4360000     16.9240000
    615    614      5      0.0000000      6.4790000      4.1630000     19.0250000
    616    615      5      0.0000000      4.2980000      6.3550000     19.1910000
    617    616      2      0.0000000      2.3070000      6.3470000     19.0370000
    618    617      1      0.0000000      0.1250000      4.0530000     16.8630000
    619    618      5      0.0000000      2.0690000      6.2590000     16.7620000
    620    619      5      0.0000000      2.1060000      4.1800000     19.1210000
    621    620      5      0.0000000      0.1520000      6.3150000     18.8830000
    622    621      2      0.0000000     10.5540000      1.9650000     19.0350000
    623    622      1      0.0000000      8.2550000     25.1290000     17.0030000
    624    623      5      0.0000000     10.3770000      2.0580000     16.9200000
    625    624      5      0.0000000     10.5180000     25.1960000     18.7480000
    626    625      5      0.0000000      8.3160000      1.9860000     18.8950000
    627    626      2      0.0000000      6.3560000      2.1000000     18.9850000
    628    627      1      0.0000000      4.3180000     24.9500000     16.7880000
    629    628      5      0.0000000      6.1370000      1.7890000     16.9000000
    630    629      5      0.0000000      6.3190000     25.3100000     19.0770000
    631    630      5      0.0000000      4.2920000      2.4200000     18.9680000
    632    631      2      0.0000000      2.1760000      2.1390000     18.9030000
    633    632      1      0.0000000      0.0460000     25.1140000     17.0010000
    634    633      5      0.0000000      2.1010000      2.2030000     16.8690000
    635    634      5      0.0000000      2.1510000      0.1140000     18.9630000
    636    635      5      0.0000000      0.0700000      2.1630000     18.7960000
    637    636      2      0.0000000     10.5410000     10.4940000     14.6920000
    638    637      1      0.0000000      8.4580000      8.2950000     12.5810000
    639    638      5      0.0000000     10.4490000     10.4410000     12.6690000
    640    639      5      0.0000000     10.4520000      8.4310000     14.8660000
    641    640      5      0.0000000      8.4470000     10.5700000     14.2980000
    642    641      2      0.0000000      6.3310000     10.4010000     14.5710000
    643    642      1      0.0000000      4.2120000      8.4840000     12.6330000
    644    643      5      0.0000000      6.2140000     10.3630000     12.4980000
    645    644      5      0.0000000      6.4490000      8.3980000     14.5940000
    646    645      5      0.0000000      4.3050000     10.4340000     14.6230000
    647    646      2      0.0000000      1.9990000     10.6260000     14.6110000
    648    647      1      0.0000000      0.1120000      8.4510000     12.7830000
    649    648      5      0.0000000      1.9800000     10.5760000     12.5890000
    650    649      5      0.0000000      2.1620000      8.3280000     14.6140000
    651    650      5      0.0000000      0.1670000     10.4010000     14.6980000
    652    651      2      0.0000000     10.5790000      6.2850000     14.6870000
    653    652      1      0.0000000      8.5040000      4.0620000     12.7860000
    654    653      5      0.0000000     10.6200000      6.1600000     12.6330000
    655    654      5      0.0000000     10.6360000      4.0970000     14.9280000
    656    655      5      0.0000000      8.4890000      6.1180000     14.5980000
    657    656      2      0.0000000      6.3760000      6.2200000     14.5270000
    658    657      1      0.0000000      4.2310000      4.0680000     12.7140000
    659    658      5      0.0000000      6.3230000      6.5250000     12.3850000
    660    659      5      0.0000000      6.4830000      4.1720000     14.7030000
    661    660      5      0.0000000      4.1420000      6.2110000     14.6030000
    662    661      2      0.0000000      2.1730000      6.2650000     14.6660000
    663    662      1      0.0000000     25.1840000      4.2490000     12.4370000
    664    663      5      0.0000000      2.3810000      6.2160000     12.4640000
    665    664      5      0.0000000      2.1020000      4.2060000     14.7140000
    666    665      5      0.0000000      0.2420000      6.0490000     14.7170000
    667    666      2      0.0000000     10.5480000      2.1020000     14.7740000
    668    667      1      0.0000000      8.4550000     24.9960000     12.5530000
    669    668      5      0.0000000     10.6700000      2.2920000     12.5540000
    670    669      5      0.0000000     10.4790000     25.2350000     14.7870000
    671    670      5      0.0000000      8.4660000      2.0630000     14.7570000
    672    671      2      0.0000000      6.3370000      1.8990000     14.6850000
    673    672      1      0.0000000      4.1600000     25.3090000     12.4000000
    674    673      5      0.0000000      6.1950000      2.1550000     12.6050000
    675    674      5      0.0000000      6.4520000     25.1800000     14.7860000
    676    675      5      0.0000000      4.2750000      2.2420000     14.6930000
    677    676      2      0.0000000     14.7350000     14.6180000      2.0960000
    678    677      1      0.0000000     12.7760000     12.6450000      0.3010000
    679    678      5      0.0000000     14.6430000     14.7190000      0.0840000
    680    679      5      0.0000000     14.8310000     12.4960000      2.2250000
    681    680      5      0.0000000     12.5630000     14.5180000      2.2020000
    682    681      2      0.0000000     23.3490000     23.1970000     10.5340000
    683    682      1      0.0000000     21.1580000     21.0810000      8.3970000
    684    683      5      0.0000000     23.2820000     23.0970000      8.3950000
    685    684      5      0.0000000     23.3710000     20.9600000     10.6590000
    686    685      5      0.0000000     21.0380000     23.1000000     10.5760000
    687    686      2      0.0000000     19.0160000     23.0060000     10.6130000
    688    687      1      0.0000000     16.8220000     20.9840000      8.2500000
    689    688      5      0.0000000     19.1910000     23.1540000      8.7120000
    690    689      5      0.0000000     18.8170000     20.9790000     10.3420000
    691    690      5      0.0000000     16.7960000     23.2910000     10.6070000
    692    691      2      0.0000000     14.7200000     23.2420000     10.4280000
    693    692      1      0.0000000     12.5990000     20.9130000      8.5210000
    694    693      5      0.0000000     14.8050000     23.2300000      8.2800000
    695    694      5      0.0000000     14.9940000     21.0100000     10.5250000
    696    695      5      0.0000000     12.6650000     23.2600000     10.4310000
    697    696      2      0.0000000     23.2970000     18.8670000     10.6210000
    698    697      1      0.0000000     21.0270000     16.7120000      8.4300000
    699    698      5      0.0000000     23.3570000     18.5940000      8.6280000
    700    699      5      0.0000000     23.2070000     16.6670000     10.6750000
    701    700      5      0.0000000     20.9280000     19.2100000     10.7410000
    702    701      2      0.0000000     18.9260000     18.9550000     10.5800000
    703    702      1      0.0000000     17.0210000     16.8590000      8.5990000
    704    703      5      0.0000000     18.9930000     18.8360000      8.3500000
    705    704      5      0.0000000     19.0290000     16.8150000     10.6680000
    706    705      5      0.0000000     16.8170000     18.8390000     10.4810000
    707    706      2      0.0000000     14.6720000     18.8840000     10.5010000
    708    707      1      0.0000000     12.7610000     16.8520000      8.4150000
    709    708      5      0.0000000     14.9110000     18.8050000      8.4150000
    710    709      5      0.0000000     14.8440000     16.6550000     10.6600000
    711    710      5      0.0000000     12.6710000     18.8820000     10.4490000
    712    711      2      0.0000000     23.2230000     14.6780000     10.4530000
    713    712      1      0.0000000     20.8090000     12.6920000      8.6300000
    714    713      5      0.0000000     23.3220000     14.5370000      8.4060000
    715    714      5      0.0000000     22.7900000     12.5050000     10.3730000
    716    715      5      0.0000000     21.0420000     14.7640000     10.4590000
    717    716      2      0.0000000     19.0360000     14.6680000     10.6130000
    718    717      1      0.0000000     16.8000000     12.5770000      8.4970000
    719    718      5      0.0000000     18.8870000     14.7070000      8.4280000
    720    719      5      0.0000000     19.0460000     12.4780000     10.5870000
    721    720      5      0.0000000     17.0680000     14.6390000     10.5600000
    722    721      2      0.0000000     14.9420000     14.5850000     10.4950000
    723    722      1      0.0000000     12.7140000     12.6100000      8.6810000
    724    723      5      0.0000000     14.8150000     14.7090000      8.4400000
    725    724      5      0.0000000     14.8560000     12.5570000     10.5130000
    726    725      5      0.0000000     12.6800000     14.7680000     10.6570000
    727    726      2      0.0000000     23.1600000     23.1510000      6.2790000
    728    727      1      0.0000000     21.2310000     20.8890000      4.3530000
    729    728      5      0.0000000     23.4450000     23.1250000      4.1640000
    730    729      5      0.0000000     23.0760000     21.0790000      6.2390000
    731    730      5      0.0000000     20.9600000     23.1790000      6.1740000
    732    731      2      0.0000000     18.8440000     23.0720000      6.4000000
    733    732      1      0.0000000     17.0310000     20.8930000      4.3920000
    734    733      5      0.0000000     18.8360000     23.1450000      4.2380000
    735    734      5      0.0000000     19.0890000     21.0540000      6.2500000
    736    735      5      0.0000000     16.9070000     23.2130000      6.7130000
    737    736      2      0.0000000     14.7720000     23.1890000      6.2140000
    738    737      1      0.0000000     12.7530000     21.0220000      4.2790000
    739    738      5      0.0000000     14.9200000     23.1330000      4.2760000
    740    739      5      0.0000000     14.8070000     20.9510000      6.2950000
    741    740      5      0.0000000     12.7910000     23.3070000      6.1170000
    742    741      2      0.0000000     23.2480000     18.7730000      6.2550000
    743    742      1      0.0000000     20.9950000     16.8680000      3.9810000
    744    743      5      0.0000000     23.2090000     18.8490000      4.1400000
    745    744      5      0.0000000     23.3570000     16.6610000      6.2130000
    746    745      5      0.0000000     20.9900000     19.0000000      6.0900000
    747    746      2      0.0000000     19.0540000     18.9020000      6.2380000
    748    747      1      0.0000000     16.9200000     16.6000000      4.0810000
    749    748      5      0.0000000     18.9640000     18.6290000      4.1530000
    750    749      5      0.0000000     19.1550000     16.5720000      6.2630000
    751    750      5      0.0000000     16.9880000     19.0620000      6.2520000
    752    751      2      0.0000000     14.8860000     18.7870000      6.4330000
    753    752      1      0.0000000     12.3880000     16.9660000      4.2040000
    754    753      5      0.0000000     14.7980000     18.8510000      4.3390000
    755    754      5      0.0000000     14.9370000     16.7300000      6.3680000
    756    755      5      0.0000000     12.7310000     18.8580000      6.3080000
    757    756      2      0.0000000     23.2450000     14.5840000      6.1380000
    758    757      1      0.0000000     21.0330000     12.3820000      4.1960000
    759    758      5      0.0000000     23.1420000     14.5440000      3.9960000
    760    759      5      0.0000000     23.1020000     12.5910000      6.0500000
    761    760      5      0.0000000     21.0300000     14.3670000      6.2460000
    762    761      2      0.0000000     18.9750000     14.4970000      6.2350000
    763    762      1      0.0000000     17.0480000     12.9060000      4.0050000
    764    763      5      0.0000000     18.9100000     14.5240000      4.1270000
    765    764      5      0.0000000     18.7780000     12.4160000      6.2320000
    766    765      5      0.0000000     16.9390000     14.6990000      6.2220000
    767    766      2      0.0000000     14.8600000     14.7380000      6.3190000
    768    767      1      0.0000000     12.8840000     12.4400000      4.1940000
    769    768      5      0.0000000     14.8720000     14.6650000      4.2260000
    770    769      5      0.0000000     14.7400000     12.6070000      6.2180000
    771    770      5      0.0000000     12.6280000     14.8240000      6.4650000
    772    771      2      0.0000000     23.1430000     23.0660000      2.2140000
    773    772      1      0.0000000     21.1860000     20.8370000      0.1450000
    774    773      5      0.0000000     23.1450000     22.8930000      0.1400000
    775    774      5      0.0000000     23.0530000     21.0550000      1.8760000
    776    775      5      0.0000000     21.0510000     23.2520000      2.4240000
    777    776      2      0.0000000     18.9990000     23.0760000      2.1920000
    778    777      1      0.0000000     16.5620000     21.0810000      0.0060000
    779    778      5      0.0000000     19.2130000     23.1240000      0.1170000
    780    779      5      0.0000000     19.1510000     20.9490000      2.3880000
    781    780      5      0.0000000     16.8770000     23.0680000      2.0150000
    782    781      2      0.0000000     14.8040000     23.1810000      2.1950000
    783    782      1      0.0000000     12.5500000     21.1190000      0.0390000
    784    783      5      0.0000000     14.8170000     23.0570000     25.1830000
    785    784      5      0.0000000     14.7530000     21.0070000      2.1540000
    786    785      5      0.0000000     12.6990000     23.2960000      1.9990000
    787    786      2      0.0000000     23.2850000     18.9010000      1.9920000
    788    787      1      0.0000000     21.2910000     17.0890000      0.0200000
    789    788      5      0.0000000     23.1470000     18.7350000     25.1810000
    790    789      5      0.0000000     23.2510000     16.8340000      2.1820000
    791    790      5      0.0000000     21.2790000     18.7830000      1.8820000
    792    791      2      0.0000000     18.9690000     18.7810000      2.0680000
    793    792      1      0.0000000     16.2480000     16.8700000      0.0670000
    794    793      5      0.0000000     19.0650000     18.8900000     25.2700000
    795    794      5      0.0000000     18.6640000     16.8200000      1.9420000
    796    795      5      0.0000000     16.7620000     18.8620000      2.2020000
    797    796      2      0.0000000     14.8210000     18.8020000      2.2290000
    798    797      1      0.0000000     12.7530000     16.7740000     25.2370000
    799    798      5      0.0000000     14.6660000     18.9010000      0.0880000
    800    799      5      0.0000000     14.7820000     16.7460000      2.0430000
    801    800      5      0.0000000     12.5580000     18.9770000      2.2670000
    802    801      2      0.0000000     23.2930000     14.8490000      2.0100000
    803    802      1      0.0000000     21.1470000     12.4720000     25.1790000
    804    803      5      0.0000000     23.1660000     14.6660000     25.1280000
    805    804      5      0.0000000     23.1110000     12.7610000      2.0760000
    806    805      5      0.0000000     20.8510000     15.1230000      1.9850000
    807    806      2      0.0000000     18.8880000     14.8180000      1.7310000
    808    807      1      0.0000000     16.8280000     12.7020000     25.0090000
    809    808      5      0.0000000     18.7990000     14.9740000     25.1580000
    810    809      5      0.0000000     18.7430000     12.6280000      1.6890000
    811    810      5      0.0000000     16.6980000     14.6750000      1.9210000
    812    811      2      0.0000000      2.1140000     14.6620000      2.1740000
    813    812      1      0.0000000      0.1260000     12.6000000     25.2870000
    814    813      5      0.0000000      2.0920000     14.7190000     25.2780000
    815    814      5      0.0000000      2.0590000     12.3940000      2.0080000
    816    815      5      0.0000000      0.0740000     14.6310000      1.8210000
    817    816      2      0.0000000     10.6560000     23.1860000     10.6300000
    818    817      1      0.0000000      8.3930000     21.1240000      8.6640000
    819    818      5      0.0000000     10.7170000     23.2110000      8.4580000
    820    819      5      0.0000000     10.7660000     21.0260000     10.5970000
    821    820      5      0.0000000      8.4450000     23.0650000     10.5380000
    822    821      2      0.0000000      6.3380000     23.1430000     10.6990000
    823    822      1      0.0000000      4.1940000     21.2370000      8.4080000
    824    823      5      0.0000000      6.2990000     23.4860000      8.6550000
    825    824      5      0.0000000      6.4340000     21.0250000     10.5310000
    826    825      5      0.0000000      4.2410000     22.9010000     10.5970000
    827    826      2      0.0000000      2.2210000     23.1450000     10.5410000
    828    827      1      0.0000000     25.1810000     20.8800000      8.3350000
    829    828      5      0.0000000      2.3170000     23.0560000      8.5490000
    830    829      5      0.0000000      1.9670000     20.9230000     10.8330000
    831    830      5      0.0000000      0.0470000     23.0310000     10.4590000
    832    831      2      0.0000000     10.5060000     18.9600000     10.5670000
    833    832      1      0.0000000      8.4500000     17.0700000      8.3130000
    834    833      5      0.0000000     10.4400000     19.1960000      8.4850000
    835    834      5      0.0000000     10.4780000     16.9510000     10.5780000
    836    835      5      0.0000000      8.6030000     18.9950000     10.7930000
    837    836      2      0.0000000      6.3550000     19.0030000     10.6600000
    838    837      1      0.0000000      4.1390000     17.0410000      8.4260000
    839    838      5      0.0000000      6.3370000     18.9780000      8.5130000
    840    839      5      0.0000000      6.2140000     16.8900000     10.7880000
    841    840      5      0.0000000      4.2010000     19.0390000     10.4310000
    842    841      2      0.0000000      2.0540000     18.9190000     10.6860000
    843    842      1      0.0000000      0.0230000     16.8700000      8.3300000
    844    843      5      0.0000000      1.7580000     18.8500000      8.4050000
    845    844      5      0.0000000      2.3450000     16.9130000     10.5320000
    846    845      5      0.0000000     25.2950000     18.6770000     10.7920000
    847    846      2      0.0000000     10.4720000     14.9130000     10.4440000
    848    847      1      0.0000000      8.3240000     12.8000000      8.4110000
    849    848      5      0.0000000     10.7620000     14.7740000      8.5260000
    850    849      5      0.0000000     10.3190000     12.5880000     10.3980000
    851    850      5      0.0000000      8.4240000     15.0930000     10.2050000
    852    851      2      0.0000000      6.2180000     14.8200000     10.5050000
    853    852      1      0.0000000      4.2650000     12.7130000      8.4340000
    854    853      5      0.0000000      6.2510000     14.4790000      8.3080000
    855    854      5      0.0000000      6.2820000     12.7730000     10.5690000
    856    855      5      0.0000000      4.2630000     14.8530000     10.2760000
    857    856      2      0.0000000      2.1820000     14.7330000     10.4320000
    858    857      1      0.0000000      0.2000000     12.6650000      8.3000000
    859    858      5      0.0000000      2.2610000     14.7220000      8.3720000
    860    859      5      0.0000000      2.0110000     12.6320000     10.4920000
    861    860      5      0.0000000      0.0740000     14.7140000     10.4100000
    862    861      2      0.0000000     10.6000000     23.2230000      6.3060000
    863    862      1      0.0000000      8.3570000     21.2320000      4.2630000
    864    863      5      0.0000000     10.5070000     22.8200000      4.1940000
    865    864      5      0.0000000     10.7360000     21.1710000      6.6840000
    866    865      5      0.0000000      8.5380000     23.4940000      6.3150000
    867    866      2      0.0000000      6.3860000     23.2840000      6.4680000
    868    867      1      0.0000000      4.0640000     20.8020000      3.9690000
    869    868      5      0.0000000      6.1900000     22.8330000      4.2100000
    870    869      5      0.0000000      6.7790000     21.3660000      6.6560000
    871    870      5      0.0000000      4.3340000     23.0660000      6.4840000
    872    871      2      0.0000000      2.1040000     23.0980000      6.4180000
    873    872      1      0.0000000      0.0820000     20.9590000      4.1980000
    874    873      5      0.0000000      2.0160000     23.0830000      4.3870000
    875    874      5      0.0000000      2.1260000     20.8970000      6.2910000
    876    875      5      0.0000000      0.0160000     23.0950000      6.5830000
    877    876      2      0.0000000     10.5930000     18.9470000      6.3940000
    878    877      1      0.0000000      8.4150000     17.0060000      4.2340000
    879    878      5      0.0000000     10.4020000     19.2290000      4.1910000
    880    879      5      0.0000000     10.4650000     16.8850000      6.4740000
    881    880      5      0.0000000      8.5290000     18.8700000      6.2320000
    882    881      2      0.0000000      6.3410000     18.9210000      6.3300000
    883    882      1      0.0000000      4.2030000     16.6890000      3.9140000
    884    883      5      0.0000000      6.3660000     18.7920000      4.2840000
    885    884      5      0.0000000      6.4970000     16.7920000      6.2580000
    886    885      5      0.0000000      4.1090000     19.0050000      6.3020000
    887    886      2      0.0000000      2.0770000     18.8270000      6.3220000
    888    887      1      0.0000000      0.0050000     17.0210000      4.2150000
    889    888      5      0.0000000      2.0860000     18.8080000      4.0910000
    890    889      5      0.0000000      1.9890000     16.8980000      6.3650000
    891    890      5      0.0000000     25.1460000     18.9860000      6.1010000
    892    891      2      0.0000000     10.6100000     14.5740000      6.4930000
    893    892      1      0.0000000      8.4850000     12.5890000      4.2360000
    894    893      5      0.0000000     10.6140000     14.8260000      4.4140000
    895    894      5      0.0000000     10.4430000     12.5830000      6.4900000
    896    895      5      0.0000000      8.5070000     14.5200000      6.5790000
    897    896      2      0.0000000      6.4790000     14.7290000      6.3570000
    898    897      1      0.0000000      4.2260000     12.2950000      4.0610000
    899    898      5      0.0000000      6.5060000     14.6830000      4.1990000
    900    899      5      0.0000000      6.5570000     12.6270000      5.9760000
    901    900      5      0.0000000      4.2800000     14.7450000      6.1510000
    902    901      2      0.0000000      2.1990000     14.5970000      6.0770000
    903    902      1      0.0000000     24.9830000     12.5070000      4.2380000
    904    903      5      0.0000000      2.0680000     14.7600000      4.1070000
    905    904      5      0.0000000      2.2890000     12.5280000      6.1720000
    906    905      5      0.0000000      0.0850000     14.4260000      5.9140000
    907    906      2      0.0000000     10.4710000     23.2660000      2.0560000
    908    907      1      0.0000000      8.0980000     20.9970000      0.0950000
    909    908      5      0.0000000     10.5210000     23.2720000     25.2420000
    910    909      5      0.0000000     10.3110000     21.1030000      1.8420000
    911    910      5      0.0000000      8.5630000     23.1100000      1.9890000
    912    911      2      0.0000000      6.2430000     23.0150000      2.1330000
    913    912      1      0.0000000      4.2110000     20.7730000     24.9920000
    914    913      5      0.0000000      6.3360000     22.9800000     25.2750000
    915    914      5      0.0000000      6.1980000     21.0660000      2.1840000
    916    915      5      0.0000000      4.2390000     23.2520000      2.1820000
    917    916      2      0.0000000      2.1560000     23.2070000      2.1350000
    918    917      1      0.0000000     25.3150000     21.0160000     25.2770000
    919    918      5      0.0000000      2.2130000     23.0840000     25.2840000
    920    919      5      0.0000000      2.2700000     20.8220000      2.0060000
    921    920      5      0.0000000      0.0660000     23.0880000      2.1420000
    922    921      2      0.0000000     10.5910000     19.0490000      2.0780000
    923    922      1      0.0000000      8.5170000     16.6800000      0.1990000
    924    923      5      0.0000000     10.7640000     18.9420000     25.2840000
    925    924      5      0.0000000     10.5940000     16.7810000      2.2750000
    926    925      5      0.0000000      8.4750000     18.7740000      1.9720000
    927    926      2      0.0000000      6.3280000     18.7480000      2.0900000
    928    927      1      0.0000000      4.1790000     16.8930000     25.1780000
    929    928      5      0.0000000      6.3330000     18.8140000      0.0090000
    930    929      5      0.0000000      6.1360000     16.8340000      2.0920000
    931    930      5      0.0000000      4.2440000     18.8150000      2.1620000
    932    931      2      0.0000000      2.1930000     18.8800000      2.0530000
    933    932      1      0.0000000     25.1730000     16.7220000     25.1140000
    934    933      5      0.0000000      1.9610000     18.8100000      0.0320000
    935    934      5      0.0000000      2.0590000     16.6980000      2.2620000
    936    935      5      0.0000000     25.2550000     19.1010000      2.1720000
    937    936      2      0.0000000     10.5130000     14.6880000      2.3030000
    938    937      1      0.0000000      8.3820000     12.5790000      0.1980000
    939    938      5      0.0000000     10.4490000     14.6090000      0.1150000
    940    939      5      0.0000000     10.5420000     12.7490000      2.1400000
    941    940      5      0.0000000      8.4940000     14.7600000      2.3530000
    942    941      2      0.0000000      6.3290000     14.6730000      2.2240000
    943    942      1      0.0000000      4.3110000     12.8550000     25.3090000
    944    943      5      0.0000000      6.8010000     14.7270000      0.1130000
    945    944      5      0.0000000      6.2400000     12.4690000      1.8180000
    946    945      5      0.0000000      4.2100000     14.6530000      1.9460000
    947    946      2      0.0000000     14.7970000      2.0210000      2.0940000
    948    947      1      0.0000000     12.6150000     25.3170000      0.0170000
    949    948      5      0.0000000     14.5870000      2.0440000     25.2610000
    950    949      5      0.0000000     14.9090000     25.1930000      2.2500000
    951    950      5      0.0000000     12.6080000      1.9100000      2.2250000
    952    951      2      0.0000000     23.2080000     10.4030000     10.4940000
    953    952      1      0.0000000     20.9280000      8.3190000      8.5520000
    954    953      5      0.0000000     23.2470000     10.5230000      8.4290000
    955    954      5      0.0000000     23.2610000      8.1760000     10.6210000
    956    955      5      0.0000000     21.1000000     10.1860000     10.5900000
    957    956      2      0.0000000     19.0590000     10.3340000     10.6540000
    958    957      1      0.0000000     17.0020000      8.4750000      8.3960000
    959    958      5      0.0000000     18.9720000     10.3670000      8.4190000
    960    959      5      0.0000000     18.9770000      8.2110000     10.4920000
    961    960      5      0.0000000     17.0620000     10.2720000     10.5080000
    962    961      2      0.0000000     14.9280000     10.4000000     10.6490000
    963    962      1      0.0000000     12.8090000      8.2260000      8.5370000
    964    963      5      0.0000000     14.8360000     10.6370000      8.5900000
    965    964      5      0.0000000     14.8000000      8.3980000     10.5800000
    966    965      5      0.0000000     12.5950000     10.6360000     10.5750000
    967    966      2      0.0000000     23.1060000      6.2200000     10.5270000
    968    967      1      0.0000000     20.9980000      4.2170000      8.5210000
    969    968      5      0.0000000     23.0080000      6.2040000      8.4590000
    970    969      5      0.0000000     23.0850000      4.1600000     10.5970000
    971    970      5      0.0000000     21.1360000      6.1320000     10.5700000
    972    971      2      0.0000000     19.0350000      6.1580000     10.6490000
    973    972      1      0.0000000     16.9620000      4.1240000      8.3750000
    974    973      5      0.0000000     19.1370000      6.1990000      8.3550000
    975    974      5      0.0000000     19.0600000      4.1540000     10.9020000
    976    975      5      0.0000000     16.9480000      6.2150000     10.6020000
    977    976      2      0.0000000     14.8440000      6.2650000     10.5770000
    978    977      1      0.0000000     12.7720000      4.0650000      8.4230000
    979    978      5      0.0000000     14.8910000      6.4300000      8.3470000
    980    979      5      0.0000000     14.9340000      4.3150000     10.2410000
    981    980      5      0.0000000     12.8090000      6.2910000     10.6850000
    982    981      2      0.0000000     23.1740000      2.0830000     10.4560000
    983    982      1      0.0000000     21.0520000     25.2210000      8.6450000
    984    983      5      0.0000000     23.0900000      1.9960000      8.2960000
    985    984      5      0.0000000     23.2160000      0.0390000     10.5170000
    986    985      5      0.0000000     21.1920000      2.0050000     10.7780000
    987    986      2      0.0000000     18.9790000      1.9970000     10.7060000
    988    987      1      0.0000000     16.9760000     25.2880000      8.4280000
    989    988      5      0.0000000     19.0670000      2.2620000      8.5200000
    990    989      5      0.0000000     19.0330000     25.1800000     10.6010000
    991    990      5      0.0000000     16.9240000      1.9730000     10.5670000
    992    991      2      0.0000000     14.7960000      2.2060000     10.4840000
    993    992      1      0.0000000     12.5990000      0.1010000      8.4260000
    994    993      5      0.0000000     14.8230000      2.0790000      8.3350000
    995    994      5      0.0000000     14.6160000      0.1120000     10.6810000
    996    995      5      0.0000000     12.6870000      2.3210000     10.5710000
    997    996      2      0.0000000     23.0260000     10.5000000      6.3070000
    998    997      1      0.0000000     21.2240000      8.4780000      4.1390000
    999    998      5      0.0000000     23.0780000     10.7810000      4.2370000
   1000    999      5      0.0000000     23.3370000      8.4320000      6.2150000
   1001   1000      5      0.0000000     20.9800000     10.5020000      6.1870000
   1002   1001      2      0.0000000     18.8890000     10.4030000      6.3620000
   1003   1002      1      0.0000000     16.9190000      8.3760000      4.3050000
   1004   1003      5      0.0000000     18.8460000     10.5170000      3.9840000
   1005   1004      5      0.0000000     19.0280000      8.3470000      6.1340000
   1006   1005      5      0.0000000     16.8420000     10.5760000      6.5460000
   1007   1006      2      0.0000000     14.9480000     10.6130000      6.2450000
   1008   1007      1      0.0000000     12.7970000      8.4180000      4.2740000
   1009   1008      5      0.0000000     15.1800000     10.2970000      4.0910000
   1010   1009      5      0.0000000     14.9320000      8.5330000      6.2880000
   1011   1010      5      0.0000000     12.9110000     10.5780000      6.2570000
   1012   1011      2      0.0000000     23.2280000      6.2240000      6.2530000
   1013   1012      1      0.0000000     21.3490000      4.1180000      4.3490000
   1014   1013      5      0.0000000     23.2570000      6.3060000      4.1000000
   1015   1014      5      0.0000000     23.2750000      4.1030000      6.1340000
   1016   1015      5      0.0000000     21.1950000      6.3910000      6.2540000
   1017   1016      2      0.0000000     19.1570000      6.3450000      6.1450000
   1018   1017      1      0.0000000     16.9560000      4.1540000      4.3740000
   1019   1018      5      0.0000000     19.2850000      6.4380000      4.1340000
   1020   1019      5      0.0000000     19.2100000      4.2810000      6.3840000
   1021   1020      5      0.0000000     17.0210000      6.2760000      6.3060000
   1022   1021      2      0.0000000     14.9120000      6.3580000      6.3490000
   1023   1022      1      0.0000000     12.7720000      4.1880000      4.2310000
   1024   1023      5      0.0000000     14.8670000      6.4280000      4.2280000
   1025   1024      5      0.0000000     14.8090000      4.1860000      6.4400000
   1026   1025      5      0.0000000     12.7590000      6.2910000      6.3640000
   1027   1026      2      0.0000000     23.1080000      1.9440000      6.3130000
   1028   1027      1      0.0000000     20.8830000     25.1870000      4.1420000
   1029   1028      5      0.0000000     23.3430000      2.1170000      4.2000000
   1030   1029      5      0.0000000     23.3270000     25.1090000      6.3450000
   1031   1030      5      0.0000000     21.0020000      2.0490000      6.3010000
   1032   1031      2      0.0000000     18.9780000      2.1620000      6.3560000
   1033   1032      1      0.0000000     16.7920000     25.1790000      4.0650000
   1034   1033      5      0.0000000     18.7030000      2.1200000      4.1220000
   1035   1034      5      0.0000000     18.9410000     25.1690000      6.3060000
   1036   1035      5      0.0000000     16.9220000      2.0540000      6.3080000
   1037   1036      2      0.0000000     14.9400000      2.0510000      6.2320000
   1038   1037      1      0.0000000     12.6760000     25.2750000      4.3120000
   1039   1038      5      0.0000000     14.9290000      2.2130000      4.1990000
   1040   1039      5      0.0000000     14.9220000     25.3010000      6.0520000
   1041   1040      5      0.0000000     12.7240000      1.8580000      6.2800000
   1042   1041      2      0.0000000     23.1260000     10.6770000      1.9900000
   1043   1042      1      0.0000000     21.1730000      8.2530000     24.9070000
   1044   1043      5      0.0000000     23.1670000     10.6960000     25.1960000
   1045   1044      5      0.0000000     23.1820000      8.5430000      2.1700000
   1046   1045      5      0.0000000     21.0730000     10.5540000      1.8280000
   1047   1046      2      0.0000000     18.9550000     10.5250000      1.8720000
   1048   1047      1      0.0000000     16.9890000      8.3720000     25.2340000
   1049   1048      5      0.0000000     19.1340000     10.6660000     25.0850000
   1050   1049      5      0.0000000     19.0540000      8.2920000      1.8070000
   1051   1050      5      0.0000000     16.8880000     10.5450000      1.5580000
   1052   1051      2      0.0000000     14.9690000     10.4990000      1.9780000
   1053   1052      1      0.0000000     12.9080000      8.5010000     25.2810000
   1054   1053      5      0.0000000     14.6030000     10.5540000      0.0050000
   1055   1054      5      0.0000000     14.7690000      8.3440000      2.0920000
   1056   1055      5      0.0000000     12.7120000     10.7540000      2.1980000
   1057   1056      2      0.0000000     23.2100000      6.2680000      2.1430000
   1058   1057      1      0.0000000     21.1610000      4.0720000      0.0080000
   1059   1058      5      0.0000000     23.2260000      6.2700000     25.2800000
   1060   1059      5      0.0000000     23.1440000      4.0940000      2.1410000
   1061   1060      5      0.0000000     21.2370000      6.0390000      2.0960000
   1062   1061      2      0.0000000     19.1340000      6.2220000      2.0800000
   1063   1062      1      0.0000000     17.0710000      4.0390000      0.2750000
   1064   1063      5      0.0000000     19.2430000      6.1940000     25.3090000
   1065   1064      5      0.0000000     19.0100000      4.0560000      2.4110000
   1066   1065      5      0.0000000     16.8690000      6.0120000      2.0410000
   1067   1066      2      0.0000000     14.7300000      6.3230000      2.1530000
   1068   1067      1      0.0000000     12.8290000      4.3640000      0.1570000
   1069   1068      5      0.0000000     14.8490000      6.4340000      0.0060000
   1070   1069      5      0.0000000     14.8000000      4.2490000      2.0280000
   1071   1070      5      0.0000000     12.7130000      6.3620000      2.3840000
   1072   1071      2      0.0000000     23.2340000      1.9720000      2.0950000
   1073   1072      1      0.0000000     21.1660000     24.9160000     25.2100000
   1074   1073      5      0.0000000     23.2230000      2.3010000     25.2390000
   1075   1074      5      0.0000000     23.3080000     25.1690000      2.1000000
   1076   1075      5      0.0000000     21.1730000      1.7860000      2.3150000
   1077   1076      2      0.0000000     19.0380000      1.9870000      2.1470000
   1078   1077      1      0.0000000     16.8340000     25.0870000     25.0240000
   1079   1078      5      0.0000000     19.0050000      2.1720000     25.3160000
   1080   1079      5      0.0000000     18.9990000     25.2600000      2.2110000
   1081   1080      5      0.0000000     16.8550000      2.0690000      1.8990000
