LAMMPS description

    1081          atoms
       1          bonds
       0         angles
       0      dihedrals
       0      impropers

       7     atom types
       1     bond types
       0    angle types
       0 dihedral types
       0 improper types


  0.0000000      25.200000     xlo xhi
  0.0000000      25.200000     ylo yhi
  0.0000000      25.200000     zlo zhi

 Atoms

      1      1      7      0.0000000      7.3550000      7.3950000     10.4560000
      2      1      4      0.0000000      6.3860000      8.3230000     10.3910000
      3      2      5      0.0000000      8.4370000      6.4590000     10.4950000
      4      3      2      0.0000000      2.1860000      2.0550000      2.1480000
      5      4      1      0.0000000     -0.2700000     -0.1880000      0.2220000
      6      5      5      0.0000000      2.2330000      2.0750000     -0.0140000
      7      6      5      0.0000000      2.2220000      0.1020000      1.9300000
      8      7      5      0.0000000     -0.0200000      2.1870000      2.0090000
      9      8      2      0.0000000     10.6300000     10.5030000     10.4730000
     10      9      1      0.0000000      8.4670000      8.3300000      8.4160000
     11     10      5      0.0000000     10.5500000     10.4060000      8.4740000
     12     11      5      0.0000000     10.7330000      8.4310000     10.4140000
     13     12      5      0.0000000      8.3290000     10.6610000     10.3610000
     14     13      2      0.0000000      6.2750000     10.4550000     10.4680000
     15     14      1      0.0000000      3.9950000      8.4490000      8.4940000
     16     15      5      0.0000000      6.1760000     10.4890000      8.4040000
     17     16      5      0.0000000      4.2750000     10.4490000     10.4980000
     18     17      2      0.0000000      2.0890000     10.5970000     10.4630000
     19     18      1      0.0000000      0.0350000      8.2670000      8.5590000
     20     19      5      0.0000000      2.1860000     10.4640000      8.4280000
     21     20      5      0.0000000      1.9570000      8.4550000     10.4540000
     22     21      5      0.0000000     -0.1240000     10.7820000     10.4540000
     23     22      2      0.0000000     10.5790000      6.2450000     10.4060000
     24     23      1      0.0000000      8.4400000      4.2970000      8.3480000
     25     24      5      0.0000000     10.3330000      6.1570000      8.3480000
     26     25      5      0.0000000     10.5280000      4.1970000     10.5730000
     27     26      2      0.0000000      6.2400000      6.3220000     10.4640000
     28     27      1      0.0000000      4.1420000      4.0680000      8.4430000
     29     28      5      0.0000000      6.4500000      6.2840000      8.4750000
     30     29      5      0.0000000      6.1540000      4.1370000     10.5110000
     31     30      5      0.0000000      4.2140000      6.2610000     10.3200000
     32     31      2      0.0000000      2.1640000      6.3300000     10.5070000
     33     32      1      0.0000000     -0.1190000      4.2470000      8.4460000
     34     33      5      0.0000000      1.9490000      6.2700000      8.4390000
     35     34      5      0.0000000      1.9080000      4.1610000     10.4830000
     36     35      5      0.0000000      0.0570000      6.2300000     10.4680000
     37     36      2      0.0000000     10.6540000      2.1340000     10.5310000
     38     37      1      0.0000000      8.5730000      0.4180000      8.4340000
     39     38      5      0.0000000     10.5840000      2.2010000      8.5010000
     40     39      5      0.0000000     10.5440000      0.0160000     10.5030000
     41     40      5      0.0000000      8.3610000      2.2360000     10.3670000
     42     41      2      0.0000000      6.2960000      2.2090000     10.6000000
     43     42      1      0.0000000      4.3540000      0.0600000      8.5590000
     44     43      5      0.0000000      6.3430000      2.1420000      8.4100000
     45     44      5      0.0000000      6.3610000      0.0700000     10.5510000
     46     45      5      0.0000000      4.2430000      2.2820000     10.6280000
     47     46      2      0.0000000      2.1560000      2.0420000     10.5640000
     48     47      1      0.0000000      0.3030000     -0.0130000      8.4360000
     49     48      5      0.0000000      2.3070000      1.9150000      8.3690000
     50     49      5      0.0000000      2.4610000      0.0250000     10.6440000
     51     50      5      0.0000000      0.0580000      1.9300000     10.4510000
     52     51      2      0.0000000     10.3880000     10.4660000      6.2750000
     53     52      1      0.0000000      8.4930000      8.4060000      4.1620000
     54     53      5      0.0000000     10.4440000     10.4680000      4.1610000
     55     54      5      0.0000000     10.4950000      8.2990000      6.3390000
     56     55      5      0.0000000      8.4130000     10.4330000      6.1420000
     57     56      2      0.0000000      6.2590000     10.3860000      6.1860000
     58     57      1      0.0000000      4.2460000      8.5080000      4.1890000
     59     58      5      0.0000000      6.2260000     10.3600000      4.1800000
     60     59      5      0.0000000      6.4700000      8.3230000      6.2100000
     61     60      5      0.0000000      4.1020000     10.3570000      6.2780000
     62     61      2      0.0000000      2.0660000     10.4510000      6.2190000
     63     62      1      0.0000000     -0.0390000      8.4950000      4.1490000
     64     63      5      0.0000000      1.9070000     10.4060000      4.1000000
     65     64      5      0.0000000      1.9900000      8.3190000      6.2690000
     66     65      5      0.0000000     -0.0160000     10.4670000      6.3640000
     67     66      2      0.0000000     10.4330000      6.2470000      6.1860000
     68     67      1      0.0000000      8.4050000      4.1810000      3.9880000
     69     68      5      0.0000000     10.5180000      6.2360000      4.1420000
     70     69      5      0.0000000     10.6050000      4.1580000      5.9560000
     71     70      5      0.0000000      8.4650000      6.2600000      6.1540000
     72     71      2      0.0000000      6.4110000      6.2700000      6.4590000
     73     72      1      0.0000000      4.1700000      4.1320000      4.1700000
     74     73      5      0.0000000      6.2260000      6.4600000      4.2160000
     75     74      5      0.0000000      6.1750000      4.1550000      6.3920000
     76     75      2      0.0000000      2.0990000      6.2780000      6.4670000
     77     76      1      0.0000000      0.1150000      4.1140000      4.2770000
     78     77      5      0.0000000      2.1240000      6.1110000      4.3660000
     79     78      5      0.0000000      2.2300000      4.0150000      6.3500000
     80     79      5      0.0000000     -0.0590000      6.1800000      6.3670000
     81     80      2      0.0000000     10.5960000      2.2160000      6.1900000
     82     81      1      0.0000000      8.4660000      0.1130000      4.0890000
     83     82      5      0.0000000     10.4620000      2.0910000      4.1210000
     84     83      5      0.0000000     10.5490000      0.1620000      6.2650000
     85     84      5      0.0000000      8.3990000      2.2160000      6.2170000
     86     85      2      0.0000000      6.2950000      2.1070000      6.3630000
     87     86      1      0.0000000      4.2160000     -0.0850000      4.4070000
     88     87      5      0.0000000      6.3420000      2.0590000      4.2030000
     89     88      5      0.0000000      6.2510000      0.0590000      6.4780000
     90     89      5      0.0000000      4.2350000      1.9980000      6.2920000
     91     90      2      0.0000000      2.2040000      2.0970000      6.3160000
     92     91      1      0.0000000      0.1120000      0.2690000      4.2270000
     93     92      5      0.0000000      1.9990000      2.1000000      4.1970000
     94     93      5      0.0000000      2.2630000      0.0300000      6.2870000
     95     94      5      0.0000000      0.1840000      2.0430000      6.3390000
     96     95      2      0.0000000     10.5010000     10.5060000      2.0650000
     97     96      1      0.0000000      8.4270000      8.3890000      0.0570000
     98     97      5      0.0000000     10.2040000     10.4740000      0.1220000
     99     98      5      0.0000000     10.6250000      8.3800000      2.1950000
    100     99      5      0.0000000      8.3210000     10.5140000      2.1260000
    101    100      2      0.0000000      6.2310000     10.4980000      2.0620000
    102    101      1      0.0000000      4.2180000      8.2880000      0.1770000
    103    102      5      0.0000000      6.1660000     10.5080000      0.0870000
    104    103      5      0.0000000      6.4380000      8.4020000      1.8720000
    105    104      5      0.0000000      4.1220000     10.3710000      2.0030000
    106    105      2      0.0000000      1.9890000     10.3360000      2.0080000
    107    106      1      0.0000000      0.1090000      8.2710000     -0.0500000
    108    107      5      0.0000000      1.8820000     10.2030000     -0.0760000
    109    108      5      0.0000000      2.0500000      8.3490000      2.1240000
    110    109      5      0.0000000     -0.0830000     10.3220000      2.0220000
    111    110      2      0.0000000     10.5260000      6.2750000      2.1010000
    112    111      1      0.0000000      8.5650000      4.1120000     -0.0040000
    113    112      5      0.0000000     10.6920000      6.2360000      0.1190000
    114    113      5      0.0000000     10.4930000      4.1260000      2.0700000
    115    114      5      0.0000000      8.4810000      6.2390000      1.9860000
    116    115      2      0.0000000      6.2810000      6.3110000      2.1180000
    117    116      1      0.0000000      4.2160000      4.3650000      0.0200000
    118    117      5      0.0000000      6.2660000      6.2260000      0.0750000
    119    118      5      0.0000000      6.2550000      4.1360000      2.2220000
    120    119      5      0.0000000      4.0890000      6.2360000      1.9890000
    121    120      2      0.0000000      2.0420000      6.1850000      2.2260000
    122    121      1      0.0000000      0.2230000      4.2130000     -0.1240000
    123    122      5      0.0000000      2.1800000      6.2800000     -0.0540000
    124    123      5      0.0000000      2.1140000      4.0250000      2.1770000
    125    124      5      0.0000000      0.0890000      6.1190000      2.0170000
    126    125      2      0.0000000     10.4890000      2.1470000      2.1610000
    127    126      1      0.0000000      8.3790000     -0.1150000     -0.0670000
    128    127      5      0.0000000     10.5720000      2.0400000      0.0430000
    129    128      5      0.0000000     10.6700000     -0.0830000      2.1250000
    130    129      5      0.0000000      8.4150000      2.1690000      2.0750000
    131    130      2      0.0000000      6.2660000      2.1120000      2.0820000
    132    131      1      0.0000000      4.3000000      0.0060000      0.2020000
    133    132      5      0.0000000      6.3380000      2.1740000      0.0030000
    134    133      5      0.0000000      6.3860000     -0.1250000      2.1850000
    135    134      5      0.0000000      4.2360000      1.9880000      2.1160000
    136    135      5      0.0000000      4.2240000      6.3490000      6.4620000
    137    136      2      0.0000000     14.6350000     14.6640000     14.7640000
    138    137      1      0.0000000     12.5040000     12.5910000     12.7310000
    139    138      5      0.0000000     14.5680000     14.6210000     12.7630000
    140    139      5      0.0000000     14.6670000     12.4950000     14.7750000
    141    140      5      0.0000000     12.6180000     14.7420000     14.8110000
    142    141      2      0.0000000     23.2040000     23.0210000     23.0850000
    143    142      1      0.0000000     21.0740000     20.9720000     21.0840000
    144    143      5      0.0000000     23.2590000     22.9340000     21.1390000
    145    144      5      0.0000000     23.1830000     20.8800000     23.0080000
    146    145      5      0.0000000     21.1590000     23.0260000     23.1110000
    147    146      2      0.0000000     19.0100000     22.9780000     23.1800000
    148    147      1      0.0000000     16.6770000     21.0090000     20.9750000
    149    148      5      0.0000000     18.9680000     23.2880000     21.1160000
    150    149      5      0.0000000     18.9360000     20.9650000     23.1720000
    151    150      5      0.0000000     16.8000000     23.1240000     23.1430000
    152    151      2      0.0000000     14.7400000     23.1340000     23.0990000
    153    152      1      0.0000000     12.6760000     21.0110000     20.8790000
    154    153      5      0.0000000     14.6320000     23.1150000     20.8480000
    155    154      5      0.0000000     14.6340000     20.9740000     23.0550000
    156    155      5      0.0000000     12.6630000     23.2340000     23.0930000
    157    156      2      0.0000000     23.1120000     18.8370000     23.2380000
    158    157      1      0.0000000     21.0170000     16.6980000     20.7310000
    159    158      5      0.0000000     23.1770000     18.5470000     20.9470000
    160    159      5      0.0000000     23.0920000     16.7090000     23.3870000
    161    160      5      0.0000000     21.0030000     18.8060000     23.2580000
    162    161      2      0.0000000     18.8960000     18.7670000     23.0870000
    163    162      1      0.0000000     16.8370000     16.7860000     20.8290000
    164    163      5      0.0000000     18.8600000     18.9050000     21.1090000
    165    164      5      0.0000000     18.8260000     16.7320000     22.9130000
    166    165      5      0.0000000     16.8030000     18.8380000     23.1240000
    167    166      2      0.0000000     14.7310000     18.9170000     23.0430000
    168    167      1      0.0000000     12.4540000     16.6380000     21.1250000
    169    168      5      0.0000000     14.7950000     18.9640000     20.9160000
    170    169      5      0.0000000     14.6700000     16.8280000     23.1370000
    171    170      5      0.0000000     12.6460000     18.7980000     22.9750000
    172    171      2      0.0000000     23.2980000     14.7390000     23.1070000
    173    172      1      0.0000000     20.9500000     12.6810000     21.0950000
    174    173      5      0.0000000     23.3130000     14.7780000     21.0070000
    175    174      5      0.0000000     23.3020000     12.6980000     23.2490000
    176    175      5      0.0000000     21.1010000     14.6280000     22.9110000
    177    176      2      0.0000000     18.9140000     14.6860000     23.1060000
    178    177      1      0.0000000     16.8550000     12.6620000     21.0390000
    179    178      5      0.0000000     18.8870000     14.5250000     21.0170000
    180    179      5      0.0000000     18.8190000     12.6100000     23.1320000
    181    180      5      0.0000000     16.8240000     14.7150000     23.0720000
    182    181      2      0.0000000     14.6930000     14.7310000     23.0810000
    183    182      1      0.0000000     12.5610000     12.3460000     20.9260000
    184    183      5      0.0000000     14.7110000     14.5770000     21.0790000
    185    184      5      0.0000000     14.8930000     12.5860000     23.1750000
    186    185      5      0.0000000     12.6330000     14.6660000     23.2380000
    187    186      2      0.0000000     23.2730000     22.8800000     19.0630000
    188    187      1      0.0000000     21.1330000     20.9100000     17.1600000
    189    188      5      0.0000000     23.4780000     22.9210000     16.8490000
    190    189      5      0.0000000     23.1050000     20.8860000     19.0510000
    191    190      5      0.0000000     21.1660000     22.7340000     19.0560000
    192    191      2      0.0000000     18.9810000     23.0710000     19.1410000
    193    192      1      0.0000000     16.8040000     20.7720000     16.9170000
    194    193      5      0.0000000     18.9550000     23.2740000     16.8360000
    195    194      5      0.0000000     19.0050000     21.0550000     19.0820000
    196    195      5      0.0000000     16.9120000     22.9890000     19.0370000
    197    196      2      0.0000000     14.6920000     22.9210000     18.8180000
    198    197      1      0.0000000     12.5610000     20.8860000     16.7670000
    199    198      5      0.0000000     14.7670000     22.9310000     16.7430000
    200    199      5      0.0000000     14.7490000     20.9290000     18.7470000
    201    200      5      0.0000000     12.6670000     22.7580000     19.0320000
    202    201      2      0.0000000     23.1490000     18.7040000     18.9560000
    203    202      1      0.0000000     21.0750000     16.7650000     16.7830000
    204    203      5      0.0000000     23.3420000     18.7200000     16.8050000
    205    204      5      0.0000000     23.3290000     16.6950000     18.9600000
    206    205      5      0.0000000     21.1450000     18.6690000     18.9550000
    207    206      2      0.0000000     18.9970000     18.8150000     18.9400000
    208    207      1      0.0000000     17.0230000     16.6990000     16.8860000
    209    208      5      0.0000000     19.0870000     18.6460000     17.0000000
    210    209      5      0.0000000     19.0040000     16.7020000     19.1200000
    211    210      5      0.0000000     16.8850000     18.7800000     18.8930000
    212    211      2      0.0000000     14.6410000     18.7300000     18.9420000
    213    212      1      0.0000000     12.6840000     16.7510000     17.0190000
    214    213      5      0.0000000     14.6210000     18.9370000     16.8480000
    215    214      5      0.0000000     14.7160000     16.7630000     19.0380000
    216    215      5      0.0000000     12.5630000     18.5070000     19.0290000
    217    216      2      0.0000000     23.2930000     14.6160000     18.8770000
    218    217      1      0.0000000     21.2510000     12.6300000     17.0690000
    219    218      5      0.0000000     23.3110000     14.6750000     16.7540000
    220    219      5      0.0000000     23.2730000     12.4970000     18.8020000
    221    220      5      0.0000000     21.0790000     14.5790000     18.8600000
    222    221      2      0.0000000     18.9110000     14.6990000     18.9190000
    223    222      1      0.0000000     16.9390000     12.4820000     16.8010000
    224    223      5      0.0000000     18.8650000     14.8740000     16.6730000
    225    224      5      0.0000000     18.9830000     12.6400000     18.9080000
    226    225      5      0.0000000     16.8460000     14.8640000     18.8820000
    227    226      2      0.0000000     14.6990000     14.6430000     18.9980000
    228    227      1      0.0000000     12.8720000     12.4330000     16.9290000
    229    228      5      0.0000000     14.8830000     14.6060000     16.8220000
    230    229      5      0.0000000     14.7960000     12.5970000     18.9490000
    231    230      5      0.0000000     12.7290000     14.6930000     18.9610000
    232    231      2      0.0000000     23.3390000     22.9810000     14.7930000
    233    232      1      0.0000000     21.0910000     21.0030000     12.6670000
    234    233      5      0.0000000     23.1850000     22.8730000     12.7610000
    235    234      5      0.0000000     23.4490000     20.7900000     14.7220000
    236    235      5      0.0000000     21.2570000     23.0710000     14.9800000
    237    236      2      0.0000000     19.0690000     23.1050000     14.7330000
    238    237      1      0.0000000     16.9100000     20.8910000     12.7400000
    239    238      5      0.0000000     19.1180000     22.9180000     12.7190000
    240    239      5      0.0000000     19.0430000     20.9060000     14.9030000
    241    240      5      0.0000000     16.8670000     23.3910000     14.6800000
    242    241      2      0.0000000     14.7850000     23.0800000     14.6980000
    243    242      1      0.0000000     12.9100000     21.0820000     12.6170000
    244    243      5      0.0000000     14.7960000     23.1700000     12.6160000
    245    244      5      0.0000000     14.9840000     20.8740000     14.5910000
    246    245      5      0.0000000     12.6730000     22.9270000     14.4640000
    247    246      2      0.0000000     23.2410000     18.8130000     14.5980000
    248    247      1      0.0000000     21.0320000     16.8230000     12.7090000
    249    248      5      0.0000000     23.0690000     18.7120000     12.6280000
    250    249      5      0.0000000     23.2120000     16.8330000     14.7420000
    251    250      5      0.0000000     21.1280000     18.9600000     14.8100000
    252    251      2      0.0000000     19.0840000     18.8850000     14.8410000
    253    252      1      0.0000000     16.9160000     16.7620000     12.6700000
    254    253      5      0.0000000     18.9350000     18.9910000     12.7550000
    255    254      5      0.0000000     19.1020000     16.8720000     14.8140000
    256    255      5      0.0000000     16.8780000     18.8960000     14.8730000
    257    256      2      0.0000000     14.6530000     18.8960000     14.7600000
    258    257      1      0.0000000     12.5310000     16.5560000     12.5730000
    259    258      5      0.0000000     14.8250000     18.7680000     12.6490000
    260    259      5      0.0000000     14.5990000     16.7570000     14.7050000
    261    260      5      0.0000000     12.6290000     18.9890000     14.8210000
    262    261      2      0.0000000     23.2830000     14.7380000     14.6430000
    263    262      1      0.0000000     21.1510000     12.6120000     12.8060000
    264    263      5      0.0000000     23.4100000     14.9210000     12.5270000
    265    264      5      0.0000000     23.1850000     12.6140000     14.6940000
    266    265      5      0.0000000     21.1860000     14.6210000     14.5590000
    267    266      2      0.0000000     19.0290000     14.7120000     14.7000000
    268    267      1      0.0000000     16.8290000     12.4180000     12.7150000
    269    268      5      0.0000000     19.1480000     14.7920000     12.6520000
    270    269      5      0.0000000     18.9750000     12.6510000     14.7130000
    271    270      5      0.0000000     16.8260000     14.6610000     14.6220000
    272    271      2      0.0000000      2.1400000     14.6990000     14.7940000
    273    272      1      0.0000000     -0.1530000     12.6880000     12.6140000
    274    273      5      0.0000000      2.0310000     14.6250000     12.5920000
    275    274      5      0.0000000      1.8750000     12.5450000     14.5400000
    276    275      5      0.0000000      0.0090000     14.6920000     14.7560000
    277    276      2      0.0000000     10.5680000     23.0410000     23.1560000
    278    277      1      0.0000000      8.4420000     20.8280000     21.1280000
    279    278      5      0.0000000     10.5710000     22.8990000     21.0720000
    280    279      5      0.0000000     10.6350000     20.9600000     23.3770000
    281    280      5      0.0000000      8.5360000     22.9770000     23.1470000
    282    281      2      0.0000000      6.3600000     22.9560000     23.0780000
    283    282      1      0.0000000      4.1190000     20.9410000     21.1860000
    284    283      5      0.0000000      6.4870000     23.0400000     21.1050000
    285    284      5      0.0000000      6.3300000     20.8840000     23.0280000
    286    285      5      0.0000000      4.1780000     22.8260000     22.9810000
    287    286      2      0.0000000      1.9550000     23.1210000     23.1760000
    288    287      1      0.0000000      0.1670000     20.8490000     21.0410000
    289    288      5      0.0000000      2.2030000     23.0420000     21.0590000
    290    289      5      0.0000000      1.8860000     21.0730000     23.1640000
    291    290      5      0.0000000     -0.0060000     23.1130000     23.2120000
    292    291      2      0.0000000     10.7130000     18.8650000     23.2780000
    293    292      1      0.0000000      8.5160000     16.7560000     21.2340000
    294    293      5      0.0000000     10.3760000     19.0110000     21.0850000
    295    294      5      0.0000000     10.5300000     16.7340000     23.1510000
    296    295      5      0.0000000      8.4590000     18.9190000     23.1580000
    297    296      2      0.0000000      6.2300000     18.8420000     23.2090000
    298    297      1      0.0000000      4.2870000     16.6550000     21.0500000
    299    298      5      0.0000000      6.2260000     18.6010000     21.1520000
    300    299      5      0.0000000      6.1490000     16.7470000     23.1830000
    301    300      5      0.0000000      4.1650000     18.9590000     23.3640000
    302    301      2      0.0000000      1.9820000     18.9220000     23.2290000
    303    302      1      0.0000000      0.0990000     16.6840000     21.0990000
    304    303      5      0.0000000      1.8810000     18.9590000     21.1150000
    305    304      5      0.0000000      2.1980000     16.7280000     23.3160000
    306    305      5      0.0000000     -0.1790000     18.6850000     23.2670000
    307    306      2      0.0000000     10.4650000     14.6650000     23.2000000
    308    307      1      0.0000000      8.2400000     12.2590000     21.1100000
    309    308      5      0.0000000     10.6250000     14.6170000     21.1220000
    310    309      5      0.0000000     10.4390000     12.4390000     23.3660000
    311    310      5      0.0000000      8.3410000     14.7160000     23.1500000
    312    311      2      0.0000000      6.2300000     14.7050000     23.1020000
    313    312      1      0.0000000      4.1640000     12.3460000     20.8940000
    314    313      5      0.0000000      6.3160000     14.5560000     21.0020000
    315    314      5      0.0000000      6.3620000     12.4320000     23.2750000
    316    315      5      0.0000000      4.2140000     14.5150000     23.1900000
    317    316      2      0.0000000      2.1390000     14.4820000     23.2110000
    318    317      1      0.0000000     -0.1240000     12.4730000     21.0590000
    319    318      5      0.0000000      2.2160000     14.6420000     21.0570000
    320    319      5      0.0000000      1.9830000     12.4640000     23.1680000
    321    320      5      0.0000000     -0.1040000     14.7350000     23.2280000
    322    321      2      0.0000000     10.5880000     22.9520000     18.9470000
    323    322      1      0.0000000      8.4530000     21.0160000     16.7110000
    324    323      5      0.0000000     10.7720000     22.9620000     16.7270000
    325    324      5      0.0000000     10.6770000     20.8830000     18.8900000
    326    325      5      0.0000000      8.4850000     22.9230000     18.8980000
    327    326      2      0.0000000      6.3510000     22.9870000     18.9760000
    328    327      1      0.0000000      4.3390000     20.9630000     16.9530000
    329    328      5      0.0000000      6.4920000     22.9460000     16.9420000
    330    329      5      0.0000000      6.2320000     20.7660000     19.0400000
    331    330      5      0.0000000      4.1640000     23.0610000     19.0560000
    332    331      2      0.0000000      2.1790000     23.0230000     19.0510000
    333    332      1      0.0000000     -0.2170000     20.6430000     16.7140000
    334    333      5      0.0000000      2.0720000     22.9640000     16.7820000
    335    334      5      0.0000000      2.0550000     20.9600000     19.0010000
    336    335      5      0.0000000     -0.0690000     23.1270000     19.1280000
    337    336      2      0.0000000     10.4210000     18.8010000     19.0380000
    338    337      1      0.0000000      8.2480000     16.4600000     16.8130000
    339    338      5      0.0000000     10.3250000     18.6280000     16.9320000
    340    339      5      0.0000000     10.5170000     16.6610000     19.0940000
    341    340      5      0.0000000      8.3760000     18.6950000     19.1700000
    342    341      2      0.0000000      6.3340000     18.7410000     18.9320000
    343    342      1      0.0000000      4.3080000     16.5160000     16.8890000
    344    343      5      0.0000000      6.5660000     18.8690000     16.8770000
    345    344      5      0.0000000      6.3310000     16.6310000     18.9140000
    346    345      5      0.0000000      4.1920000     18.6170000     18.9420000
    347    346      2      0.0000000      2.0760000     18.9040000     18.8450000
    348    347      1      0.0000000     -0.0780000     16.7820000     16.7620000
    349    348      5      0.0000000      2.1020000     18.8900000     16.8280000
    350    349      5      0.0000000      2.0200000     16.7560000     18.8570000
    351    350      5      0.0000000     -0.0330000     18.9910000     18.8540000
    352    351      2      0.0000000     10.5470000     14.5370000     18.9390000
    353    352      1      0.0000000      8.4000000     12.4480000     16.8150000
    354    353      5      0.0000000     10.4180000     14.7730000     16.7710000
    355    354      5      0.0000000     10.6500000     12.5700000     18.8790000
    356    355      5      0.0000000      8.4470000     14.4890000     19.0780000
    357    356      2      0.0000000      6.3830000     14.5100000     18.9330000
    358    357      1      0.0000000      4.2810000     12.3600000     16.6830000
    359    358      5      0.0000000      6.3770000     14.5630000     16.7570000
    360    359      5      0.0000000      6.5830000     12.4500000     18.9610000
    361    360      5      0.0000000      4.2340000     14.3170000     18.9780000
    362    361      2      0.0000000      2.1400000     14.4800000     18.9650000
    363    362      1      0.0000000     -0.1060000     12.6060000     16.5510000
    364    363      5      0.0000000      2.3290000     14.6220000     16.9240000
    365    364      5      0.0000000      2.2620000     12.2820000     19.1760000
    366    365      5      0.0000000      0.0450000     14.4740000     18.8550000
    367    366      2      0.0000000     10.6400000     22.9490000     14.6970000
    368    367      1      0.0000000      8.5140000     20.8490000     12.5930000
    369    368      5      0.0000000     10.6940000     22.9620000     12.5840000
    370    369      5      0.0000000     10.6070000     20.9660000     14.7470000
    371    370      5      0.0000000      8.5450000     22.9890000     14.7240000
    372    371      2      0.0000000      6.3970000     22.9000000     14.7690000
    373    372      1      0.0000000      4.2000000     21.0490000     12.5640000
    374    373      5      0.0000000      6.4370000     22.9920000     12.7100000
    375    374      5      0.0000000      6.4480000     20.9340000     14.9550000
    376    375      5      0.0000000      4.3780000     23.1390000     14.9990000
    377    376      2      0.0000000      2.1600000     22.9030000     14.8510000
    378    377      1      0.0000000     -0.0910000     20.8540000     12.6390000
    379    378      5      0.0000000      2.2800000     22.9510000     12.7890000
    380    379      5      0.0000000      2.2260000     20.8370000     14.7870000
    381    380      5      0.0000000      0.0970000     22.9080000     14.7050000
    382    381      2      0.0000000     10.5300000     18.8040000     14.7890000
    383    382      1      0.0000000      8.3540000     16.8730000     12.6050000
    384    383      5      0.0000000     10.5220000     18.8830000     12.5970000
    385    384      5      0.0000000     10.4410000     16.7860000     14.3550000
    386    385      5      0.0000000      8.4890000     18.9750000     14.6160000
    387    386      2      0.0000000      6.4160000     18.8240000     14.8620000
    388    387      1      0.0000000      4.3470000     16.6980000     12.6540000
    389    388      5      0.0000000      6.2910000     18.7880000     12.6760000
    390    389      5      0.0000000      6.3300000     16.6400000     14.9850000
    391    390      5      0.0000000      4.2810000     18.8000000     14.9530000
    392    391      2      0.0000000      2.2500000     18.8040000     14.7570000
    393    392      1      0.0000000      0.1310000     16.6200000     12.7720000
    394    393      5      0.0000000      2.2850000     18.8000000     12.6940000
    395    394      5      0.0000000      2.1060000     16.6880000     14.8160000
    396    395      5      0.0000000      0.0380000     18.8950000     14.4590000
    397    396      2      0.0000000     10.3680000     14.6800000     14.6960000
    398    397      1      0.0000000      8.3650000     12.6300000     12.5550000
    399    398      5      0.0000000     10.6750000     14.5550000     12.5750000
    400    399      5      0.0000000     10.4290000     12.5830000     14.5970000
    401    400      5      0.0000000      8.3830000     14.5170000     14.7850000
    402    401      2      0.0000000      6.3100000     14.6610000     14.7330000
    403    402      1      0.0000000      4.2950000     12.7710000     12.6150000
    404    403      5      0.0000000      6.2930000     14.8980000     12.5490000
    405    404      5      0.0000000      6.1050000     12.6380000     14.7550000
    406    405      5      0.0000000      4.1440000     14.6830000     14.5800000
    407    406      2      0.0000000     14.7550000      2.0980000     14.6580000
    408    407      1      0.0000000     12.8540000      0.0380000     12.5770000
    409    408      5      0.0000000     14.8310000      1.9960000     12.6380000
    410    409      5      0.0000000     14.5590000     -0.0460000     14.8370000
    411    410      5      0.0000000     12.6510000      2.1830000     14.6310000
    412    411      2      0.0000000     23.1470000     10.4820000     23.1590000
    413    412      1      0.0000000     21.1900000      8.5220000     21.0830000
    414    413      5      0.0000000     23.1600000     10.4950000     21.0200000
    415    414      5      0.0000000     23.0830000      8.4460000     23.3480000
    416    415      5      0.0000000     20.9810000     10.8070000     22.9860000
    417    416      2      0.0000000     18.9120000     10.5730000     23.1350000
    418    417      1      0.0000000     16.7270000      8.3250000     20.9750000
    419    418      5      0.0000000     18.8640000     10.3180000     21.0190000
    420    419      5      0.0000000     19.1930000      8.4900000     23.0000000
    421    420      5      0.0000000     16.7670000     10.3890000     23.2190000
    422    421      2      0.0000000     14.6070000     10.4870000     23.2260000
    423    422      1      0.0000000     12.5560000      8.3630000     21.1120000
    424    423      5      0.0000000     14.4110000     10.6490000     21.0500000
    425    424      5      0.0000000     14.6890000      8.5590000     23.0010000
    426    425      5      0.0000000     12.5620000     10.6070000     23.3820000
    427    426      2      0.0000000     23.2270000      6.4180000     23.2800000
    428    427      1      0.0000000     20.8680000      4.2080000     21.0890000
    429    428      5      0.0000000     23.3050000      6.4510000     21.1230000
    430    429      5      0.0000000     23.1770000      4.2280000     23.4190000
    431    430      5      0.0000000     21.2150000      6.2810000     23.2150000
    432    431      2      0.0000000     18.9170000      6.3200000     23.1140000
    433    432      1      0.0000000     16.9490000      4.2650000     20.9510000
    434    433      5      0.0000000     18.9590000      6.2620000     21.1160000
    435    434      5      0.0000000     18.7190000      4.1680000     23.1180000
    436    435      5      0.0000000     16.8380000      6.4360000     23.0300000
    437    436      2      0.0000000     14.7870000      6.3330000     23.2680000
    438    437      1      0.0000000     12.5380000      4.1400000     20.9650000
    439    438      5      0.0000000     14.5690000      6.1430000     21.2590000
    440    439      5      0.0000000     14.9520000      4.2080000     23.1090000
    441    440      5      0.0000000     12.5810000      6.3300000     23.4150000
    442    441      2      0.0000000     23.2230000      2.1970000     23.1660000
    443    442      1      0.0000000     21.1710000      0.1740000     21.0090000
    444    443      5      0.0000000     23.3660000      2.2620000     21.0750000
    445    444      5      0.0000000     23.0610000      0.1050000     23.2340000
    446    445      5      0.0000000     20.9850000      2.1780000     23.1030000
    447    446      2      0.0000000     18.8800000      2.0820000     23.1680000
    448    447      1      0.0000000     16.8000000      0.0280000     20.9250000
    449    448      5      0.0000000     19.0070000      1.9300000     20.9780000
    450    449      5      0.0000000     18.9210000      0.0300000     23.4340000
    451    450      5      0.0000000     16.8350000      1.9830000     22.8980000
    452    451      2      0.0000000     14.7650000      2.1410000     22.9680000
    453    452      1      0.0000000     12.5100000     -0.0250000     20.7880000
    454    453      5      0.0000000     14.3960000      2.1390000     20.9160000
    455    454      5      0.0000000     14.7380000     -0.0270000     23.0270000
    456    455      5      0.0000000     12.6160000      2.0520000     23.0360000
    457    456      2      0.0000000     23.2390000     10.4910000     18.8660000
    458    457      1      0.0000000     21.1260000      8.5300000     16.8960000
    459    458      5      0.0000000     23.1220000     10.3940000     16.7440000
    460    459      5      0.0000000     23.2910000      8.4480000     18.8170000
    461    460      5      0.0000000     21.1060000     10.5290000     19.0200000
    462    461      2      0.0000000     18.9590000     10.3980000     18.9350000
    463    462      1      0.0000000     17.0040000      8.1340000     16.8630000
    464    463      5      0.0000000     18.9260000     10.4730000     16.9310000
    465    464      5      0.0000000     18.9250000      8.2580000     18.8200000
    466    465      5      0.0000000     16.8320000     10.5480000     19.0420000
    467    466      2      0.0000000     14.7210000     10.5040000     19.0290000
    468    467      1      0.0000000     12.9530000      8.1390000     16.8690000
    469    468      5      0.0000000     14.8980000     10.3490000     16.9490000
    470    469      5      0.0000000     14.5290000      8.3360000     19.0670000
    471    470      5      0.0000000     12.7110000     10.4560000     18.8160000
    472    471      2      0.0000000     23.3510000      6.2780000     18.9340000
    473    472      1      0.0000000     20.9630000      4.2260000     16.9030000
    474    473      5      0.0000000     23.1880000      6.3090000     16.7750000
    475    474      5      0.0000000     23.1330000      4.3100000     18.9890000
    476    475      5      0.0000000     21.0580000      6.2330000     19.0070000
    477    476      2      0.0000000     19.0000000      6.2890000     18.9210000
    478    477      1      0.0000000     16.9980000      4.1010000     16.8430000
    479    478      5      0.0000000     19.0770000      6.1650000     16.8680000
    480    479      5      0.0000000     18.8410000      4.0700000     18.9670000
    481    480      5      0.0000000     16.8690000      6.2870000     18.8640000
    482    481      2      0.0000000     14.6800000      6.2180000     19.0660000
    483    482      1      0.0000000     12.6280000      3.9910000     16.7660000
    484    483      5      0.0000000     14.4260000      6.2670000     16.7820000
    485    484      5      0.0000000     14.8920000      4.0710000     18.9420000
    486    485      5      0.0000000     12.6560000      6.0900000     19.0940000
    487    486      2      0.0000000     23.2380000      2.1460000     18.9300000
    488    487      1      0.0000000     21.0360000      0.1750000     16.9320000
    489    488      5      0.0000000     23.2300000      2.2200000     16.8490000
    490    489      5      0.0000000     23.1990000     -0.0580000     18.9480000
    491    490      5      0.0000000     21.0850000      2.1870000     19.0290000
    492    491      2      0.0000000     19.0430000      2.0060000     19.0060000
    493    492      1      0.0000000     17.1410000     -0.0140000     16.8310000
    494    493      5      0.0000000     19.0980000      1.9800000     16.8730000
    495    494      5      0.0000000     19.1050000      0.0280000     18.9780000
    496    495      5      0.0000000     16.8530000      1.8780000     18.9290000
    497    496      2      0.0000000     14.7360000      2.0210000     18.8540000
    498    497      1      0.0000000     12.7390000      0.1900000     16.5490000
    499    498      5      0.0000000     14.7330000      2.0650000     16.7350000
    500    499      5      0.0000000     14.5800000     -0.0310000     18.8760000
    501    500      5      0.0000000     12.6880000      1.9690000     18.8400000
    502    501      2      0.0000000     23.1520000     10.4440000     14.6990000
    503    502      1      0.0000000     21.1560000      8.4120000     12.4510000
    504    503      5      0.0000000     23.1200000     10.6670000     12.5340000
    505    504      5      0.0000000     23.2810000      8.3210000     14.6720000
    506    505      5      0.0000000     21.0520000     10.3990000     14.7060000
    507    506      2      0.0000000     19.0590000     10.4150000     14.7000000
    508    507      1      0.0000000     16.8940000      8.3010000     12.6390000
    509    508      5      0.0000000     19.0750000     10.3070000     12.5500000
    510    509      5      0.0000000     19.0550000      8.4480000     14.8780000
    511    510      5      0.0000000     16.9470000     10.4700000     14.6650000
    512    511      2      0.0000000     14.8560000     10.3730000     14.7200000
    513    512      1      0.0000000     12.8320000      8.6160000     12.7910000
    514    513      5      0.0000000     14.7120000     10.3860000     12.7310000
    515    514      5      0.0000000     14.9910000      8.3320000     14.8470000
    516    515      5      0.0000000     12.6190000     10.3670000     14.8400000
    517    516      2      0.0000000     23.2020000      6.2190000     14.7510000
    518    517      1      0.0000000     20.9840000      4.1780000     12.5660000
    519    518      5      0.0000000     23.3790000      6.1970000     12.5300000
    520    519      5      0.0000000     23.3100000      4.2180000     14.6990000
    521    520      5      0.0000000     21.2000000      6.2300000     14.5160000
    522    521      2      0.0000000     19.1770000      6.2340000     14.8290000
    523    522      1      0.0000000     16.9790000      4.2880000     12.6880000
    524    523      5      0.0000000     18.9120000      6.3560000     12.7870000
    525    524      5      0.0000000     19.1300000      4.0920000     14.9060000
    526    525      5      0.0000000     16.8550000      6.0790000     14.9760000
    527    526      2      0.0000000     14.7550000      6.2330000     14.7990000
    528    527      1      0.0000000     12.7070000      4.2790000     12.7210000
    529    528      5      0.0000000     14.9050000      6.2400000     12.5310000
    530    529      5      0.0000000     14.7720000      4.1190000     14.7030000
    531    530      5      0.0000000     12.7590000      6.4940000     14.6850000
    532    531      2      0.0000000     23.1950000      2.0510000     14.7280000
    533    532      1      0.0000000     21.3260000      0.0970000     12.6890000
    534    533      5      0.0000000     23.3420000      2.1650000     12.6770000
    535    534      5      0.0000000     23.0910000     -0.0950000     14.8260000
    536    535      5      0.0000000     21.1230000      2.1000000     14.6100000
    537    536      2      0.0000000     19.0570000      2.1090000     14.7180000
    538    537      1      0.0000000     16.9410000      0.1110000     12.5720000
    539    538      5      0.0000000     18.8560000      2.0680000     12.6160000
    540    539      5      0.0000000     19.0350000      0.1630000     14.5890000
    541    540      5      0.0000000     16.8030000      2.1180000     14.7520000
    542    541      2      0.0000000      2.2130000      2.1630000     14.6910000
    543    542      1      0.0000000      0.0200000     -0.0010000     12.5070000
    544    543      5      0.0000000      2.0530000      2.0580000     12.5870000
    545    544      5      0.0000000      2.2630000      0.0380000     14.7830000
    546    545      5      0.0000000     -0.0250000      2.0260000     14.6270000
    547    546      2      0.0000000     10.5130000     10.4940000     23.3160000
    548    547      1      0.0000000      8.4910000      8.2700000     21.2320000
    549    548      5      0.0000000     10.6870000     10.4050000     20.9680000
    550    549      5      0.0000000     10.3010000      8.2990000     23.3560000
    551    550      5      0.0000000      8.4300000     10.4870000     23.1250000
    552    551      2      0.0000000      6.2530000     10.3250000     23.2380000
    553    552      1      0.0000000      4.2750000      8.3390000     21.0570000
    554    553      5      0.0000000      6.2560000     10.4100000     21.0470000
    555    554      5      0.0000000      6.3980000      8.4020000     23.1430000
    556    555      5      0.0000000      4.1780000     10.2110000     23.2030000
    557    556      2      0.0000000      2.0630000     10.3760000     23.1090000
    558    557      1      0.0000000     -0.1590000      8.4790000     20.8420000
    559    558      5      0.0000000      2.3810000     10.2160000     20.8660000
    560    559      5      0.0000000      2.0690000      8.4260000     23.1670000
    561    560      5      0.0000000     -0.1040000     10.3260000     23.0380000
    562    561      2      0.0000000     10.5230000      6.2220000     23.2760000
    563    562      1      0.0000000      8.3700000      4.2060000     20.9530000
    564    563      5      0.0000000     10.4140000      6.1360000     21.1750000
    565    564      5      0.0000000     10.4630000      4.0890000     23.1910000
    566    565      5      0.0000000      8.3970000      6.2230000     23.2820000
    567    566      2      0.0000000      6.2740000      6.2710000     23.2650000
    568    567      1      0.0000000      4.3360000      4.1150000     21.1560000
    569    568      5      0.0000000      6.3650000      6.3590000     21.0100000
    570    569      5      0.0000000      6.2260000      4.2670000     23.3010000
    571    570      5      0.0000000      4.1690000      6.3590000     23.0960000
    572    571      2      0.0000000      2.0420000      6.3270000     23.1630000
    573    572      1      0.0000000     -0.0920000      4.3420000     21.2140000
    574    573      5      0.0000000      2.2540000      6.2630000     21.0240000
    575    574      5      0.0000000      2.0220000      4.1820000     23.2850000
    576    575      5      0.0000000     -0.0480000      6.3350000     23.1660000
    577    576      2      0.0000000     10.5390000      2.0280000     23.0260000
    578    577      1      0.0000000      8.4130000     -0.1130000     20.9830000
    579    578      5      0.0000000     10.6250000      1.9850000     21.0110000
    580    579      5      0.0000000     10.2680000      0.0860000     23.0070000
    581    580      5      0.0000000      8.4460000      2.1180000     23.0170000
    582    581      2      0.0000000      6.4020000      2.2050000     23.1380000
    583    582      1      0.0000000      4.2150000     -0.0040000     20.9800000
    584    583      5      0.0000000      6.3270000      2.0330000     20.9690000
    585    584      5      0.0000000      6.3520000     -0.1280000     23.2550000
    586    585      5      0.0000000      4.2270000      2.1620000     23.0740000
    587    586      2      0.0000000      2.2050000      2.0750000     23.2970000
    588    587      1      0.0000000      0.1430000      0.0050000     20.9040000
    589    588      5      0.0000000      2.1200000      2.0790000     21.1340000
    590    589      5      0.0000000      2.1160000     -0.0100000     23.1290000
    591    590      5      0.0000000     -0.0050000      2.3310000     23.2460000
    592    591      2      0.0000000     10.5510000     10.4430000     18.8140000
    593    592      1      0.0000000      8.5750000      8.4140000     16.5840000
    594    593      5      0.0000000     10.6250000     10.4190000     16.7060000
    595    594      5      0.0000000     10.5740000      8.3280000     19.0350000
    596    595      5      0.0000000      8.5030000     10.4360000     18.8660000
    597    596      2      0.0000000      6.4270000     10.4650000     18.9670000
    598    597      1      0.0000000      4.1590000      8.1670000     16.6730000
    599    598      5      0.0000000      6.5020000     10.3360000     16.7760000
    600    599      5      0.0000000      6.4390000      8.3420000     19.0100000
    601    600      5      0.0000000      4.3590000     10.5150000     18.6820000
    602    601      2      0.0000000      2.2530000     10.3190000     18.8350000
    603    602      1      0.0000000     -0.0240000      8.3720000     16.6540000
    604    603      5      0.0000000      2.0630000     10.4180000     16.6260000
    605    604      5      0.0000000      2.2010000      8.3080000     18.8080000
    606    605      5      0.0000000     -0.0420000     10.4230000     18.9440000
    607    606      2      0.0000000     10.5340000      6.1990000     18.9320000
    608    607      1      0.0000000      8.6330000      4.2810000     16.8530000
    609    608      5      0.0000000     10.6370000      6.2260000     16.8900000
    610    609      5      0.0000000     10.5990000      4.2110000     18.8640000
    611    610      5      0.0000000      8.4340000      6.0920000     18.8840000
    612    611      2      0.0000000      6.4080000      6.3600000     18.8980000
    613    612      1      0.0000000      4.3820000      3.9990000     16.7980000
    614    613      5      0.0000000      6.5920000      6.4870000     16.7030000
    615    614      5      0.0000000      6.2970000      4.2470000     18.8870000
    616    615      5      0.0000000      4.2810000      6.3030000     18.7590000
    617    616      2      0.0000000      2.2500000      6.2810000     18.9260000
    618    617      1      0.0000000     -0.0110000      4.2610000     16.6410000
    619    618      5      0.0000000      2.0360000      6.2980000     16.8280000
    620    619      5      0.0000000      2.1560000      4.2660000     18.9800000
    621    620      5      0.0000000     -0.0150000      6.0510000     19.0570000
    622    621      2      0.0000000     10.5090000      2.0440000     18.9700000
    623    622      1      0.0000000      8.5410000     -0.1120000     16.7470000
    624    623      5      0.0000000     10.4170000      2.0620000     16.7980000
    625    624      5      0.0000000     10.5150000     -0.0300000     18.8700000
    626    625      5      0.0000000      8.4860000      2.1000000     19.0570000
    627    626      2      0.0000000      6.4090000      2.0990000     18.8900000
    628    627      1      0.0000000      4.1340000      0.0840000     16.8490000
    629    628      5      0.0000000      6.3810000      2.0440000     16.8580000
    630    629      5      0.0000000      6.4800000     -0.0900000     18.8640000
    631    630      5      0.0000000      4.2980000      2.1300000     19.0200000
    632    631      2      0.0000000      2.1480000      2.2650000     19.0330000
    633    632      1      0.0000000     -0.0020000     -0.2300000     16.7490000
    634    633      5      0.0000000      2.0890000      2.3300000     16.9250000
    635    634      5      0.0000000      2.2950000      0.0420000     18.8170000
    636    635      5      0.0000000     -0.0900000      2.0640000     18.9640000
    637    636      2      0.0000000     10.6050000     10.3960000     14.6420000
    638    637      1      0.0000000      8.4380000      8.3640000     12.4610000
    639    638      5      0.0000000     10.6360000     10.3840000     12.5790000
    640    639      5      0.0000000     10.5030000      8.3180000     14.6420000
    641    640      5      0.0000000      8.4740000     10.3630000     14.5220000
    642    641      2      0.0000000      6.3640000     10.3930000     14.7100000
    643    642      1      0.0000000      4.3410000      8.4090000     12.6890000
    644    643      5      0.0000000      6.3300000     10.4570000     12.6710000
    645    644      5      0.0000000      6.2970000      8.3860000     14.5940000
    646    645      5      0.0000000      4.3230000     10.2780000     14.7200000
    647    646      2      0.0000000      2.0220000     10.4840000     14.5310000
    648    647      1      0.0000000     -0.0620000      8.3450000     12.4370000
    649    648      5      0.0000000      2.2520000     10.4510000     12.5110000
    650    649      5      0.0000000      1.9080000      8.3050000     14.5220000
    651    650      5      0.0000000     -0.1360000     10.6410000     14.7450000
    652    651      2      0.0000000     10.5940000      6.3140000     14.6170000
    653    652      1      0.0000000      8.4860000      4.1580000     12.4260000
    654    653      5      0.0000000     10.8350000      6.0780000     12.4780000
    655    654      5      0.0000000     10.6810000      4.1430000     14.7550000
    656    655      5      0.0000000      8.4600000      6.1690000     14.3330000
    657    656      2      0.0000000      6.3360000      6.2230000     14.6820000
    658    657      1      0.0000000      4.1260000      4.2430000     12.4770000
    659    658      5      0.0000000      6.0650000      6.2280000     12.5090000
    660    659      5      0.0000000      6.3230000      4.1760000     14.8500000
    661    660      5      0.0000000      4.1810000      6.3530000     14.7430000
    662    661      2      0.0000000      2.1090000      6.2200000     14.6840000
    663    662      1      0.0000000     -0.0380000      4.1220000     12.6640000
    664    663      5      0.0000000      2.2210000      6.2830000     12.5520000
    665    664      5      0.0000000      2.3740000      4.2370000     14.4760000
    666    665      5      0.0000000      0.0690000      6.1520000     14.8170000
    667    666      2      0.0000000     10.5270000      2.0640000     14.7240000
    668    667      1      0.0000000      8.5970000     -0.0500000     12.7100000
    669    668      5      0.0000000     10.5130000      2.1250000     12.6070000
    670    669      5      0.0000000     10.6880000      0.0200000     14.6670000
    671    670      5      0.0000000      8.5180000      2.1410000     14.6990000
    672    671      2      0.0000000      6.3670000      2.0600000     14.8270000
    673    672      1      0.0000000      4.2810000      0.1580000     12.7120000
    674    673      5      0.0000000      6.2610000      2.2410000     12.7590000
    675    674      5      0.0000000      6.4340000     -0.1120000     14.7310000
    676    675      5      0.0000000      4.2850000      2.2090000     14.9240000
    677    676      2      0.0000000     14.7090000     14.5280000      2.1780000
    678    677      1      0.0000000     12.6290000     12.8270000      0.1020000
    679    678      5      0.0000000     14.8760000     14.6970000      0.0400000
    680    679      5      0.0000000     14.7930000     12.5570000      2.1870000
    681    680      5      0.0000000     12.5050000     14.5430000      2.1920000
    682    681      2      0.0000000     23.2610000     23.0720000     10.5080000
    683    682      1      0.0000000     21.2230000     20.8700000      8.4400000
    684    683      5      0.0000000     23.0810000     23.2470000      8.5220000
    685    684      5      0.0000000     23.4250000     20.9850000     10.3330000
    686    685      5      0.0000000     21.2040000     22.8560000     10.5520000
    687    686      2      0.0000000     19.1190000     23.1450000     10.6290000
    688    687      1      0.0000000     17.0600000     21.1960000      8.6440000
    689    688      5      0.0000000     18.9740000     23.0360000      8.4720000
    690    689      5      0.0000000     18.9140000     20.8990000     10.4030000
    691    690      5      0.0000000     16.9570000     23.1570000     10.5660000
    692    691      2      0.0000000     14.8410000     23.0470000     10.5150000
    693    692      1      0.0000000     12.6500000     20.8340000      8.6140000
    694    693      5      0.0000000     14.9370000     22.9020000      8.5020000
    695    694      5      0.0000000     14.6410000     20.9860000     10.6640000
    696    695      5      0.0000000     12.8030000     23.1060000     10.2930000
    697    696      2      0.0000000     23.2410000     18.8620000     10.4310000
    698    697      1      0.0000000     21.2110000     17.1110000      8.4870000
    699    698      5      0.0000000     23.2550000     18.9410000      8.4080000
    700    699      5      0.0000000     23.0570000     16.8680000     10.2080000
    701    700      5      0.0000000     21.1430000     19.1040000     10.6560000
    702    701      2      0.0000000     18.9780000     18.8920000     10.6520000
    703    702      1      0.0000000     16.8620000     16.8900000      8.7040000
    704    703      5      0.0000000     19.0750000     18.7390000      8.5340000
    705    704      5      0.0000000     19.0000000     16.8230000     10.8450000
    706    705      5      0.0000000     16.9220000     18.9840000     10.5890000
    707    706      2      0.0000000     14.8150000     18.9460000     10.6790000
    708    707      1      0.0000000     12.8130000     16.7610000      8.6080000
    709    708      5      0.0000000     14.9630000     18.6400000      8.5440000
    710    709      5      0.0000000     14.7090000     16.6510000     10.6520000
    711    710      5      0.0000000     12.7400000     18.8290000     10.6300000
    712    711      2      0.0000000     23.1940000     14.8880000     10.4340000
    713    712      1      0.0000000     21.0190000     12.8090000      8.4320000
    714    713      5      0.0000000     23.3770000     14.9140000      8.3900000
    715    714      5      0.0000000     22.9900000     12.5520000     10.5620000
    716    715      5      0.0000000     21.1250000     14.6570000     10.5080000
    717    716      2      0.0000000     19.0820000     14.5850000     10.5540000
    718    717      1      0.0000000     17.0530000     12.4500000      8.3870000
    719    718      5      0.0000000     19.0490000     14.7330000      8.5710000
    720    719      5      0.0000000     18.9040000     12.5180000     10.3310000
    721    720      5      0.0000000     16.9330000     14.6190000     10.5950000
    722    721      2      0.0000000     14.7990000     14.4660000     10.5190000
    723    722      1      0.0000000     12.6430000     12.6750000      8.3030000
    724    723      5      0.0000000     14.8010000     14.6250000      8.3680000
    725    724      5      0.0000000     14.9750000     12.3860000     10.6380000
    726    725      5      0.0000000     12.7360000     14.3440000     10.3570000
    727    726      2      0.0000000     23.1940000     23.1040000      6.3930000
    728    727      1      0.0000000     20.9550000     20.8710000      4.3030000
    729    728      5      0.0000000     23.2640000     22.9570000      4.3490000
    730    729      5      0.0000000     23.1810000     21.0800000      6.2910000
    731    730      5      0.0000000     20.9780000     22.9410000      6.5250000
    732    731      2      0.0000000     18.9380000     23.0770000      6.3370000
    733    732      1      0.0000000     16.9200000     20.8840000      4.2530000
    734    733      5      0.0000000     18.9680000     23.1060000      4.2210000
    735    734      5      0.0000000     18.9850000     21.0050000      6.0610000
    736    735      5      0.0000000     16.8600000     23.1460000      6.3740000
    737    736      2      0.0000000     14.6740000     23.0080000      6.2910000
    738    737      1      0.0000000     12.8070000     20.9060000      4.3080000
    739    738      5      0.0000000     14.8220000     23.0880000      4.2050000
    740    739      5      0.0000000     14.6500000     20.9620000      6.5380000
    741    740      5      0.0000000     12.6430000     23.1380000      6.2410000
    742    741      2      0.0000000     23.2140000     18.9460000      6.4000000
    743    742      1      0.0000000     21.2530000     16.9740000      4.4450000
    744    743      5      0.0000000     23.1670000     18.9470000      4.2210000
    745    744      5      0.0000000     23.1750000     16.8660000      6.2430000
    746    745      5      0.0000000     21.1240000     19.0050000      6.5080000
    747    746      2      0.0000000     18.9830000     18.9660000      6.4290000
    748    747      1      0.0000000     16.9500000     16.7100000      4.3760000
    749    748      5      0.0000000     19.0850000     18.9010000      4.2360000
    750    749      5      0.0000000     19.0180000     16.8770000      6.5110000
    751    750      5      0.0000000     16.8880000     18.9810000      6.4240000
    752    751      2      0.0000000     14.8220000     18.8870000      6.4540000
    753    752      1      0.0000000     12.6500000     16.5790000      4.4260000
    754    753      5      0.0000000     15.0490000     19.1680000      4.2630000
    755    754      5      0.0000000     14.6440000     16.6770000      6.2660000
    756    755      5      0.0000000     12.8010000     18.8660000      6.4140000
    757    756      2      0.0000000     23.2780000     14.7600000      6.2890000
    758    757      1      0.0000000     21.3510000     12.7960000      4.4730000
    759    758      5      0.0000000     23.2350000     14.6880000      4.2900000
    760    759      5      0.0000000     23.3710000     12.6070000      6.4340000
    761    760      5      0.0000000     21.2900000     14.8610000      6.4060000
    762    761      2      0.0000000     19.0450000     14.7790000      6.5430000
    763    762      1      0.0000000     16.8870000     12.6210000      4.1630000
    764    763      5      0.0000000     18.9040000     14.6420000      4.3880000
    765    764      5      0.0000000     19.3360000     12.5490000      6.4560000
    766    765      5      0.0000000     16.8780000     14.7580000      6.6850000
    767    766      2      0.0000000     14.7800000     14.5390000      6.3120000
    768    767      1      0.0000000     12.7760000     12.5000000      4.2500000
    769    768      5      0.0000000     14.9780000     14.3770000      4.2340000
    770    769      5      0.0000000     14.9010000     12.4440000      6.1520000
    771    770      5      0.0000000     12.7460000     14.4620000      6.2280000
    772    771      2      0.0000000     23.1520000     23.1250000      2.3580000
    773    772      1      0.0000000     21.0500000     20.9030000     -0.0060000
    774    773      5      0.0000000     23.1660000     22.9690000     -0.1540000
    775    774      5      0.0000000     23.1790000     21.1200000      2.1040000
    776    775      5      0.0000000     21.0410000     23.2220000      2.0960000
    777    776      2      0.0000000     19.0140000     22.9390000      2.1350000
    778    777      1      0.0000000     16.8090000     20.8250000     -0.1000000
    779    778      5      0.0000000     18.9230000     22.8340000      0.0410000
    780    779      5      0.0000000     19.1750000     20.8690000      2.3240000
    781    780      5      0.0000000     16.9350000     22.9260000      2.0770000
    782    781      2      0.0000000     14.8660000     22.9730000      2.1410000
    783    782      1      0.0000000     12.8310000     21.0270000     -0.0090000
    784    783      5      0.0000000     14.8400000     23.2460000      0.0540000
    785    784      5      0.0000000     14.9140000     20.9910000      1.9650000
    786    785      5      0.0000000     12.6790000     22.7830000      2.0970000
    787    786      2      0.0000000     23.2170000     18.9750000      2.1400000
    788    787      1      0.0000000     21.3510000     16.7030000      0.1310000
    789    788      5      0.0000000     23.1410000     19.0380000      0.0230000
    790    789      5      0.0000000     23.3860000     16.7320000      2.2310000
    791    790      5      0.0000000     21.0970000     18.8190000      2.0840000
    792    791      2      0.0000000     19.0210000     18.7940000      2.1650000
    793    792      1      0.0000000     16.9090000     16.7800000      0.0620000
    794    793      5      0.0000000     18.8790000     18.7100000      0.0750000
    795    794      5      0.0000000     18.8560000     16.7310000      2.1380000
    796    795      5      0.0000000     16.9100000     18.8650000      2.1250000
    797    796      2      0.0000000     14.8830000     18.8870000      2.1320000
    798    797      1      0.0000000     12.9310000     16.9070000      0.2140000
    799    798      5      0.0000000     14.5980000     18.9350000     -0.0070000
    800    799      5      0.0000000     14.7210000     16.6490000      2.1340000
    801    800      5      0.0000000     12.7920000     18.8250000      2.3090000
    802    801      2      0.0000000     23.2140000     14.6000000      2.2260000
    803    802      1      0.0000000     21.1100000     12.5810000      0.0940000
    804    803      5      0.0000000     23.1300000     14.6630000      0.1140000
    805    804      5      0.0000000     23.3640000     12.5940000      2.2580000
    806    805      5      0.0000000     21.1230000     14.6170000      2.0630000
    807    806      2      0.0000000     18.9770000     14.6000000      2.2220000
    808    807      1      0.0000000     16.7180000     12.7450000      0.0670000
    809    808      5      0.0000000     19.0530000     14.7280000      0.0130000
    810    809      5      0.0000000     18.9190000     12.6440000      2.3110000
    811    810      5      0.0000000     16.7860000     14.5250000      2.1790000
    812    811      2      0.0000000      2.2260000     14.5890000      2.0660000
    813    812      1      0.0000000     -0.1500000     12.5010000      0.1340000
    814    813      5      0.0000000      2.2690000     14.4490000      0.0520000
    815    814      5      0.0000000      2.0950000     12.3930000      1.9000000
    816    815      5      0.0000000      0.0370000     14.7280000      2.3260000
    817    816      2      0.0000000     10.6250000     23.0790000     10.4890000
    818    817      1      0.0000000      8.4640000     21.0980000      8.4030000
    819    818      5      0.0000000     10.5700000     23.0420000      8.3350000
    820    819      5      0.0000000     10.5790000     20.9940000     10.5110000
    821    820      5      0.0000000      8.5210000     22.9850000     10.6210000
    822    821      2      0.0000000      6.4160000     23.0710000     10.6520000
    823    822      1      0.0000000      4.1560000     21.0750000      8.6950000
    824    823      5      0.0000000      6.4610000     23.2030000      8.6610000
    825    824      5      0.0000000      6.3520000     20.9900000     10.5980000
    826    825      5      0.0000000      4.2380000     23.0030000     10.6410000
    827    826      2      0.0000000      2.2520000     23.0930000     10.7320000
    828    827      1      0.0000000     -0.0810000     21.1010000      8.4540000
    829    828      5      0.0000000      2.1790000     23.1650000      8.5860000
    830    829      5      0.0000000      1.9080000     20.9530000     10.6800000
    831    830      5      0.0000000      0.1390000     23.3290000     10.7360000
    832    831      2      0.0000000     10.6210000     18.9390000     10.5920000
    833    832      1      0.0000000      8.6810000     16.7620000      8.3310000
    834    833      5      0.0000000     10.5880000     18.9250000      8.4400000
    835    834      5      0.0000000     10.7690000     16.7190000     10.5050000
    836    835      5      0.0000000      8.6600000     18.7860000     10.5260000
    837    836      2      0.0000000      6.4280000     18.8420000     10.3880000
    838    837      1      0.0000000      4.3020000     16.7450000      8.5550000
    839    838      5      0.0000000      6.5880000     18.7320000      8.3750000
    840    839      5      0.0000000      6.3940000     16.9310000     10.4540000
    841    840      5      0.0000000      4.2890000     19.0530000     10.3960000
    842    841      2      0.0000000      2.1180000     18.8400000     10.4830000
    843    842      1      0.0000000      0.0710000     16.9130000      8.3520000
    844    843      5      0.0000000      2.0950000     18.8920000      8.4670000
    845    844      5      0.0000000      2.3510000     16.7940000     10.4570000
    846    845      5      0.0000000     -0.0390000     18.6670000     10.4940000
    847    846      2      0.0000000     10.4510000     14.6120000     10.6090000
    848    847      1      0.0000000      8.2720000     12.3840000      8.3490000
    849    848      5      0.0000000     10.5800000     14.4760000      8.5130000
    850    849      5      0.0000000     10.5490000     12.5050000     10.6180000
    851    850      5      0.0000000      8.4180000     14.7280000     10.6110000
    852    851      2      0.0000000      6.3340000     14.7970000     10.4170000
    853    852      1      0.0000000      4.2650000     12.5840000      8.2670000
    854    853      5      0.0000000      6.4600000     14.9420000      8.4190000
    855    854      5      0.0000000      6.0980000     12.5850000     10.4400000
    856    855      5      0.0000000      4.1930000     14.6350000     10.5980000
    857    856      2      0.0000000      2.0210000     14.6690000     10.4610000
    858    857      1      0.0000000     -0.0450000     12.6700000      8.3060000
    859    858      5      0.0000000      2.1500000     14.6620000      8.2940000
    860    859      5      0.0000000      2.1680000     12.6280000     10.3500000
    861    860      5      0.0000000     -0.0150000     14.7510000     10.5470000
    862    861      2      0.0000000     10.5870000     23.0460000      6.3810000
    863    862      1      0.0000000      8.4480000     21.0380000      4.4610000
    864    863      5      0.0000000     10.6700000     23.0450000      4.2440000
    865    864      5      0.0000000     10.6280000     20.9890000      6.4990000
    866    865      5      0.0000000      8.3830000     23.1250000      6.1640000
    867    866      2      0.0000000      6.2500000     23.1760000      6.3460000
    868    867      1      0.0000000      4.0190000     21.1450000      4.2680000
    869    868      5      0.0000000      6.2390000     23.1080000      4.2920000
    870    869      5      0.0000000      6.3000000     21.0210000      6.3270000
    871    870      5      0.0000000      4.2310000     22.9990000      6.5290000
    872    871      2      0.0000000      2.1520000     23.1490000      6.4580000
    873    872      1      0.0000000     -0.1360000     21.0840000      4.4230000
    874    873      5      0.0000000      2.1700000     23.1360000      4.2550000
    875    874      5      0.0000000      2.0370000     21.0110000      6.4870000
    876    875      5      0.0000000      0.0420000     23.0100000      6.5480000
    877    876      2      0.0000000     10.6180000     18.9490000      6.2910000
    878    877      1      0.0000000      8.3860000     16.9270000      4.2860000
    879    878      5      0.0000000     10.7200000     18.9840000      4.3590000
    880    879      5      0.0000000     10.6900000     16.7750000      6.3390000
    881    880      5      0.0000000      8.6020000     18.8560000      6.2980000
    882    881      2      0.0000000      6.3420000     18.9300000      6.4170000
    883    882      1      0.0000000      4.2700000     16.9250000      4.2260000
    884    883      5      0.0000000      6.3020000     18.7390000      4.3790000
    885    884      5      0.0000000      6.2470000     16.8440000      6.2150000
    886    885      5      0.0000000      4.1270000     18.9890000      6.5000000
    887    886      2      0.0000000      2.1420000     18.9710000      6.3770000
    888    887      1      0.0000000      0.0070000     16.9160000      4.0250000
    889    888      5      0.0000000      2.0610000     19.0740000      4.1980000
    890    889      5      0.0000000      2.1680000     16.8170000      6.2750000
    891    890      5      0.0000000     -0.0790000     18.9830000      6.3370000
    892    891      2      0.0000000     10.5720000     14.6360000      6.3660000
    893    892      1      0.0000000      8.4870000     12.7060000      4.0300000
    894    893      5      0.0000000     10.4920000     14.7470000      4.2510000
    895    894      5      0.0000000     10.4340000     12.6360000      6.2880000
    896    895      5      0.0000000      8.4310000     14.7370000      6.4830000
    897    896      2      0.0000000      6.3890000     14.7260000      6.2290000
    898    897      1      0.0000000      4.2770000     12.5980000      4.0760000
    899    898      5      0.0000000      6.4100000     14.8660000      4.2220000
    900    899      5      0.0000000      6.3280000     12.5040000      6.2700000
    901    900      5      0.0000000      4.2640000     14.6170000      6.2050000
    902    901      2      0.0000000      2.1630000     14.7370000      6.1820000
    903    902      1      0.0000000      0.0330000     12.6060000      4.1250000
    904    903      5      0.0000000      2.2270000     14.4130000      4.1130000
    905    904      5      0.0000000      2.1260000     12.5710000      6.1800000
    906    905      5      0.0000000      0.0150000     15.0400000      6.3190000
    907    906      2      0.0000000     10.4900000     22.8980000      2.0560000
    908    907      1      0.0000000      8.4970000     20.9420000     -0.1220000
    909    908      5      0.0000000     10.3360000     23.1540000     -0.0060000
    910    909      5      0.0000000     10.6410000     20.9330000      2.0070000
    911    910      5      0.0000000      8.4370000     23.0170000      2.1150000
    912    911      2      0.0000000      6.3800000     22.9690000      2.1530000
    913    912      1      0.0000000      4.1850000     21.1100000     -0.1570000
    914    913      5      0.0000000      6.2400000     22.8560000     -0.0750000
    915    914      5      0.0000000      6.2430000     21.0370000      2.1300000
    916    915      5      0.0000000      4.2890000     23.2610000      2.2360000
    917    916      2      0.0000000      2.0830000     23.1060000      2.0800000
    918    917      1      0.0000000     -0.1280000     21.1950000      0.1700000
    919    918      5      0.0000000      2.0260000     23.1210000      0.1080000
    920    919      5      0.0000000      2.3800000     21.0620000      2.1230000
    921    920      5      0.0000000     -0.0670000     23.0740000      2.2170000
    922    921      2      0.0000000     10.5720000     18.8590000      2.1410000
    923    922      1      0.0000000      8.4660000     16.8020000     -0.0100000
    924    923      5      0.0000000     10.6530000     18.7380000      0.0840000
    925    924      5      0.0000000     10.6020000     16.8200000      2.2690000
    926    925      5      0.0000000      8.5800000     19.0310000      2.4020000
    927    926      2      0.0000000      6.3000000     18.9300000      2.1380000
    928    927      1      0.0000000      4.2590000     16.7950000      0.1000000
    929    928      5      0.0000000      6.3830000     18.9680000      0.1120000
    930    929      5      0.0000000      6.2140000     16.8620000      2.1890000
    931    930      5      0.0000000      4.1710000     18.9670000      2.1620000
    932    931      2      0.0000000      2.2200000     18.9270000      2.1080000
    933    932      1      0.0000000      0.0220000     16.7730000      0.0050000
    934    933      5      0.0000000      2.0750000     18.8310000      0.0080000
    935    934      5      0.0000000      2.2610000     16.7890000      2.2000000
    936    935      5      0.0000000      0.1340000     19.0250000      2.1430000
    937    936      2      0.0000000     10.5650000     14.7680000      2.1260000
    938    937      1      0.0000000      8.3100000     12.4990000     -0.0390000
    939    938      5      0.0000000     10.6770000     14.8230000      0.1550000
    940    939      5      0.0000000     10.3810000     12.5570000      2.0670000
    941    940      5      0.0000000      8.5330000     14.7830000      2.0970000
    942    941      2      0.0000000      6.2200000     14.7720000      2.1910000
    943    942      1      0.0000000      4.2330000     12.5750000      0.1380000
    944    943      5      0.0000000      6.3800000     14.8340000      0.0510000
    945    944      5      0.0000000      6.1580000     12.5110000      2.2060000
    946    945      5      0.0000000      4.2450000     14.7480000      2.0790000
    947    946      2      0.0000000     14.7590000      2.1000000      2.0860000
    948    947      1      0.0000000     12.6370000      0.2130000      0.1170000
    949    948      5      0.0000000     14.6740000      2.0390000      0.0010000
    950    949      5      0.0000000     14.8930000      0.0240000      2.1040000
    951    950      5      0.0000000     12.5250000      1.9790000      2.1320000
    952    951      2      0.0000000     23.0820000     10.5360000     10.5080000
    953    952      1      0.0000000     21.0270000      8.2730000      8.4170000
    954    953      5      0.0000000     23.3100000     10.3350000      8.3410000
    955    954      5      0.0000000     23.2640000      8.3120000     10.6050000
    956    955      5      0.0000000     21.0580000     10.2730000     10.4590000
    957    956      2      0.0000000     18.9880000     10.2340000     10.3920000
    958    957      1      0.0000000     16.9960000      8.1760000      8.5170000
    959    958      5      0.0000000     18.9520000     10.3190000      8.3990000
    960    959      5      0.0000000     18.9960000      8.2090000     10.4480000
    961    960      5      0.0000000     16.9070000     10.3250000     10.4520000
    962    961      2      0.0000000     14.7170000     10.4130000     10.6080000
    963    962      1      0.0000000     12.7120000      8.3670000      8.4030000
    964    963      5      0.0000000     14.7060000     10.4060000      8.3120000
    965    964      5      0.0000000     14.7660000      8.2280000     10.5950000
    966    965      5      0.0000000     12.7940000     10.4740000     10.5270000
    967    966      2      0.0000000     23.2680000      6.1850000     10.5200000
    968    967      1      0.0000000     21.1410000      4.1250000      8.2190000
    969    968      5      0.0000000     23.0860000      6.2020000      8.3690000
    970    969      5      0.0000000     23.2640000      4.2430000     10.5530000
    971    970      5      0.0000000     21.0700000      6.1680000     10.5640000
    972    971      2      0.0000000     18.9490000      6.0690000     10.5800000
    973    972      1      0.0000000     16.7800000      4.1130000      8.2220000
    974    973      5      0.0000000     18.7370000      6.0780000      8.3710000
    975    974      5      0.0000000     19.1490000      4.0700000     10.6960000
    976    975      5      0.0000000     16.9700000      6.1680000     10.5420000
    977    976      2      0.0000000     14.7930000      6.1200000     10.4590000
    978    977      1      0.0000000     12.6990000      4.0920000      8.4020000
    979    978      5      0.0000000     14.9360000      6.1610000      8.3820000
    980    979      5      0.0000000     15.0240000      3.9950000     10.5430000
    981    980      5      0.0000000     12.6480000      6.0830000     10.3780000
    982    981      2      0.0000000     23.2400000      2.1170000     10.5620000
    983    982      1      0.0000000     21.2140000      0.0820000      8.3910000
    984    983      5      0.0000000     23.3520000      2.0080000      8.4400000
    985    984      5      0.0000000     23.2850000      0.0010000     10.7040000
    986    985      5      0.0000000     21.2620000      2.0220000     10.4270000
    987    986      2      0.0000000     19.0810000      2.0200000     10.4000000
    988    987      1      0.0000000     16.8010000     -0.1410000      8.2920000
    989    988      5      0.0000000     19.2010000      2.2670000      8.4230000
    990    989      5      0.0000000     19.3990000     -0.0620000     10.5880000
    991    990      5      0.0000000     17.0400000      1.7210000     10.2780000
    992    991      2      0.0000000     14.9800000      2.0500000     10.5170000
    993    992      1      0.0000000     12.8660000      0.0620000      8.4580000
    994    993      5      0.0000000     14.7850000      2.1630000      8.3660000
    995    994      5      0.0000000     14.6960000     -0.0010000     10.4040000
    996    995      5      0.0000000     12.7650000      2.1450000     10.4820000
    997    996      2      0.0000000     23.2620000     10.4120000      6.3140000
    998    997      1      0.0000000     20.9540000      8.5230000      4.1770000
    999    998      5      0.0000000     23.2180000     10.4830000      4.2380000
   1000    999      5      0.0000000     23.2070000      8.3320000      6.0840000
   1001   1000      5      0.0000000     21.1710000     10.3830000      6.3030000
   1002   1001      2      0.0000000     19.0380000     10.5020000      6.3630000
   1003   1002      1      0.0000000     16.7910000      8.5640000      4.4720000
   1004   1003      5      0.0000000     18.9240000     10.4260000      4.1190000
   1005   1004      5      0.0000000     18.9340000      8.4140000      6.3740000
   1006   1005      5      0.0000000     16.9620000     10.6080000      6.3350000
   1007   1006      2      0.0000000     14.7540000     10.4600000      6.3090000
   1008   1007      1      0.0000000     12.6560000      8.4470000      4.2070000
   1009   1008      5      0.0000000     14.6560000     10.2880000      4.1660000
   1010   1009      5      0.0000000     14.6300000      8.4300000      6.4610000
   1011   1010      5      0.0000000     12.4770000     10.6390000      6.1420000
   1012   1011      2      0.0000000     23.2560000      6.3520000      6.2280000
   1013   1012      1      0.0000000     21.1060000      4.2950000      4.0280000
   1014   1013      5      0.0000000     23.1580000      6.2740000      4.2280000
   1015   1014      5      0.0000000     23.3550000      4.0460000      6.3670000
   1016   1015      5      0.0000000     20.9520000      6.2280000      6.3390000
   1017   1016      2      0.0000000     18.8520000      6.1570000      6.2070000
   1018   1017      1      0.0000000     17.0200000      4.0520000      4.1040000
   1019   1018      5      0.0000000     19.0810000      6.2690000      4.1190000
   1020   1019      5      0.0000000     18.8110000      4.1430000      6.2890000
   1021   1020      5      0.0000000     16.8630000      6.2040000      6.3360000
   1022   1021      2      0.0000000     14.7310000      6.2640000      6.2700000
   1023   1022      1      0.0000000     12.6350000      4.1790000      4.0810000
   1024   1023      5      0.0000000     14.7690000      6.4420000      4.2260000
   1025   1024      5      0.0000000     14.6690000      4.3120000      6.2570000
   1026   1025      5      0.0000000     12.5950000      6.2850000      6.3290000
   1027   1026      2      0.0000000     23.2710000      2.0760000      6.3120000
   1028   1027      1      0.0000000     21.0270000      0.1140000      4.1170000
   1029   1028      5      0.0000000     23.3590000      2.2130000      4.1910000
   1030   1029      5      0.0000000     23.2280000     -0.0910000      6.3530000
   1031   1030      5      0.0000000     21.2150000      2.1080000      6.2670000
   1032   1031      2      0.0000000     19.0580000      2.1290000      6.2740000
   1033   1032      1      0.0000000     16.8270000     -0.0660000      4.0500000
   1034   1033      5      0.0000000     18.8200000      1.9690000      4.1640000
   1035   1034      5      0.0000000     18.9340000      0.0120000      6.4560000
   1036   1035      5      0.0000000     16.8050000      2.1700000      6.5460000
   1037   1036      2      0.0000000     14.7510000      2.1690000      6.3420000
   1038   1037      1      0.0000000     12.5340000     -0.1220000      4.0860000
   1039   1038      5      0.0000000     14.8480000      2.0890000      4.2600000
   1040   1039      5      0.0000000     14.7630000      0.1110000      6.3970000
   1041   1040      5      0.0000000     12.6970000      2.2300000      6.2390000
   1042   1041      2      0.0000000     23.2050000     10.3630000      2.1190000
   1043   1042      1      0.0000000     21.1300000      8.4260000      0.0420000
   1044   1043      5      0.0000000     23.3080000     10.4440000      0.0220000
   1045   1044      5      0.0000000     23.2760000      8.3600000      2.0670000
   1046   1045      5      0.0000000     21.1050000     10.3730000      1.9700000
   1047   1046      2      0.0000000     18.8860000     10.4910000      2.1240000
   1048   1047      1      0.0000000     16.9850000      8.3100000     -0.1780000
   1049   1048      5      0.0000000     19.1250000     10.5480000      0.0080000
   1050   1049      5      0.0000000     19.0300000      8.3560000      2.2510000
   1051   1050      5      0.0000000     16.7780000     10.4210000      2.0220000
   1052   1051      2      0.0000000     14.6620000     10.4250000      2.0030000
   1053   1052      1      0.0000000     12.6110000      8.3840000     -0.0480000
   1054   1053      5      0.0000000     14.6500000     10.4790000     -0.0650000
   1055   1054      5      0.0000000     14.7500000      8.3520000      2.0780000
   1056   1055      5      0.0000000     12.6830000     10.6050000      2.0110000
   1057   1056      2      0.0000000     23.1780000      6.2780000      2.0680000
   1058   1057      1      0.0000000     21.4080000      4.4350000      0.1170000
   1059   1058      5      0.0000000     23.1210000      6.4610000      0.0640000
   1060   1059      5      0.0000000     23.0190000      4.3220000      2.1320000
   1061   1060      5      0.0000000     21.0330000      6.2760000      2.2000000
   1062   1061      2      0.0000000     18.8280000      6.3450000      2.1460000
   1063   1062      1      0.0000000     17.0880000      3.9110000     -0.0770000
   1064   1063      5      0.0000000     18.8770000      6.3380000     -0.0840000
   1065   1064      5      0.0000000     18.9330000      4.1850000      2.0740000
   1066   1065      5      0.0000000     16.8370000      6.2780000      2.0470000
   1067   1066      2      0.0000000     14.7470000      6.2720000      2.1090000
   1068   1067      1      0.0000000     12.4610000      4.1120000     -0.1530000
   1069   1068      5      0.0000000     14.6900000      6.4320000     -0.0740000
   1070   1069      5      0.0000000     14.7770000      4.2440000      2.1520000
   1071   1070      5      0.0000000     12.7520000      6.2270000      2.1400000
   1072   1071      2      0.0000000     23.1760000      2.1670000      2.0240000
   1073   1072      1      0.0000000     20.9420000     -0.0320000     -0.0060000
   1074   1073      5      0.0000000     23.0680000      2.2110000      0.1180000
   1075   1074      5      0.0000000     23.2940000      0.0190000      2.0840000
   1076   1075      5      0.0000000     21.0690000      2.1780000      2.2780000
   1077   1076      2      0.0000000     18.9230000      2.0660000      2.1070000
   1078   1077      1      0.0000000     16.8000000     -0.1000000     -0.1530000
   1079   1078      5      0.0000000     18.9310000      2.1260000      0.0090000
   1080   1079      5      0.0000000     18.8620000     -0.1440000      2.0770000
   1081   1080      5      0.0000000     16.8460000      2.1230000      2.0740000

 Bonds

       1       1       1       2
