LAMMPS description

    1081          atoms
       1          bonds
       0         angles
       0      dihedrals
       0      impropers

       7     atom types
       1     bond types
       0    angle types
       0 dihedral types
       0 improper types


  0.0000000      25.319000     xlo xhi
  0.0000000      25.319000     ylo yhi
  0.0000000      25.319000     zlo zhi

 Atoms

      1      1      7      0.0000000      7.4991961      9.4527397     10.5211849
      2      2      5      0.0000000      6.4858694      8.7046680     10.4657860
      3      3      5      0.0000000      8.2875414      6.2485313     10.6195679
      4      4      2      0.0000000      1.9925765      1.9897770      2.0611334
      5      5      1      0.0000000     25.2821159     25.3107796      0.0131413
      6      6      5      0.0000000      1.9677564      1.8316851     25.2779140
      7      7      5      0.0000000      2.0829740     25.1234398      1.8507985
      8      8      5      0.0000000     25.2887402      1.7875060      2.0514715
      9      9      2      0.0000000     10.4705286     10.3811216     10.6631632
     10     10      1      0.0000000      8.5635252      8.4246168      8.4323425
     11     11      5      0.0000000     10.6583099     10.5168180      8.4281225
     12     12      5      0.0000000     10.3678370      8.2861643     10.6025486
     13      1      4      0.0000000      8.1782398     10.5699692     10.4210978
     14     13      2      0.0000000      6.2217627     10.6756649     10.4516068
     15     14      1      0.0000000      4.0083933      8.4876089      8.2452316
     16     15      5      0.0000000      6.2341199     10.4358397      8.2714729
     17     16      5      0.0000000      4.1344452     10.6186914     10.4799099
     18     17      2      0.0000000      2.0633819     10.6200504     10.5103493
     19     18      1      0.0000000      0.2003294      8.1766481      8.1597204
     20     19      5      0.0000000      1.9362800     10.3896275      8.2743635
     21     20      5      0.0000000      2.0126872      8.5842953     10.4296112
     22     21      5      0.0000000     25.2783947     10.5274220     10.6716251
     23     22      2      0.0000000     10.5910883      6.3128123     10.6244640
     24     23      1      0.0000000      8.7360373      4.2929735      8.4475212
     25     24      5      0.0000000     10.6550903      6.6020017      8.5557489
     26     25      5      0.0000000     10.4694204      4.2947068     10.4777832
     27     26      2      0.0000000      6.2711296      6.2320480     10.3725891
     28     27      1      0.0000000      4.1989732      4.1979198      8.2480049
     29     28      5      0.0000000      6.2644267      6.3659458      8.3494158
     30     29      5      0.0000000      6.1518807      4.2104497     10.1736364
     31     30      5      0.0000000      4.2350960      6.5287304     10.3594112
     32     31      2      0.0000000      2.1560993      6.3155899     10.4936838
     33     32      1      0.0000000      0.0062638      4.0781212      8.3509321
     34     33      5      0.0000000      2.0563939      6.3854399      8.3081217
     35     34      5      0.0000000      2.1427255      4.1472306     10.5342817
     36     35      5      0.0000000      0.1189610      6.2280941     10.4034233
     37     36      2      0.0000000     10.5562077      2.2057683     10.5090084
     38     37      1      0.0000000      8.7064304     25.1185379      8.2506151
     39     38      5      0.0000000     10.7206068      2.0430655      8.5075369
     40     39      5      0.0000000     10.4808245     25.2786980     10.5211411
     41     40      5      0.0000000      8.3719683      2.1223793     10.8046331
     42     41      2      0.0000000      6.3905802      2.1136384     10.5695000
     43     42      1      0.0000000      4.3488607     25.2854786      8.3912601
     44     43      5      0.0000000      6.5824566      2.0369256      8.2778044
     45     44      5      0.0000000      6.3281155     25.2922554     10.7569370
     46     45      5      0.0000000      4.2625594      2.1096709     10.5490322
     47     46      2      0.0000000      2.1343493      2.1297679     10.5037317
     48     47      1      0.0000000     25.2502327     25.2041950      8.4633417
     49     48      5      0.0000000      2.0891120      2.3490880      8.2077208
     50     49      5      0.0000000      2.3186846      0.0490459     10.4661217
     51     50      5      0.0000000      0.0661121      1.9152062     10.3555098
     52     51      2      0.0000000     10.7963190     10.4328775      6.4226031
     53     52      1      0.0000000      8.6754827      8.3158493      4.2838449
     54     53      5      0.0000000     10.7329550     10.6775560      4.2873926
     55     54      5      0.0000000     10.9915228      8.3624668      6.3643265
     56     55      5      0.0000000      8.5390787     10.2576284      6.3452039
     57     56      2      0.0000000      6.5508618     10.4271355      6.2660275
     58     57      1      0.0000000      4.2071228      8.4576530      4.0064416
     59     58      5      0.0000000      6.3352757     10.4101105      4.2623162
     60     59      5      0.0000000      6.4398327      8.3513689      6.2495952
     61     60      5      0.0000000      4.1913319     10.5491734      6.3687840
     62     61      2      0.0000000      2.1093435     10.4879723      6.2974720
     63     62      1      0.0000000      0.0962215      8.5567942      4.0382719
     64     63      5      0.0000000      2.1145775     10.3995514      4.1020031
     65     64      5      0.0000000      2.0757062      8.2585449      6.1658382
     66     65      5      0.0000000     25.1891212     10.4089336      6.2015557
     67     66      2      0.0000000     10.7269611      6.3419838      6.4006157
     68     67      1      0.0000000      8.4449530      4.2820168      4.1329536
     69     68      5      0.0000000     10.6745796      6.3454213      4.3679314
     70     69      5      0.0000000     10.7779484      4.0894380      6.4954100
     71     70      5      0.0000000      8.6321592      6.4169521      6.4590135
     72     71      2      0.0000000      6.2447362      6.3404999      6.2198114
     73     72      1      0.0000000      4.1749916      4.1506629      4.1989651
     74     73      5      0.0000000      6.1143699      6.3335209      4.1528220
     75     74      5      0.0000000      6.5499024      4.2853436      6.1724472
     76     75      2      0.0000000      1.9441516      6.1715345      6.1455188
     77     76      1      0.0000000     25.1524658      4.0329947      4.2017503
     78     77      5      0.0000000      2.1240151      6.0173039      4.0311913
     79     78      5      0.0000000      2.1182153      4.0557532      6.1368279
     80     79      5      0.0000000     25.2790127      6.1916962      6.3667870
     81     80      2      0.0000000     10.6273079      2.0086136      6.1878657
     82     81      1      0.0000000      8.4488287     25.2901821      3.9817529
     83     82      5      0.0000000     10.6151695      2.1810074      4.1221991
     84     83      5      0.0000000     10.6682816     25.3025990      6.0490623
     85     84      5      0.0000000      8.5147505      1.9206802      6.2022724
     86     85      2      0.0000000      6.4959455      2.0381720      6.3054056
     87     86      1      0.0000000      4.3998108     24.9749241      4.4603910
     88     87      5      0.0000000      6.2883472      1.9901528      4.1363020
     89     88      5      0.0000000      6.5027685      0.0569516      6.2527018
     90     89      5      0.0000000      4.2975965      1.8695594      6.2889400
     91     90      2      0.0000000      2.0642233      1.9684530      6.2062240
     92     91      1      0.0000000      0.0695603     25.0165558      4.1473193
     93     92      5      0.0000000      2.1388400      1.9380223      4.1335254
     94     93      5      0.0000000      2.0067852     25.2420464      6.3593307
     95     94      5      0.0000000     25.2456818      1.7896476      6.3343482
     96     95      2      0.0000000     10.6244087     10.5923948      2.3114395
     97     96      1      0.0000000      8.6830091      8.6356525      0.1154418
     98     97      5      0.0000000     10.5775042     10.4701557      0.0718911
     99     98      5      0.0000000     10.6778488      8.3540459      2.2222273
    100     99      5      0.0000000      8.4581633     10.5679808      2.2571228
    101    100      2      0.0000000      6.2918177     10.5064144      2.0837843
    102    101      1      0.0000000      4.3397994      8.2033844     25.2938766
    103    102      5      0.0000000      6.2770309     10.5273361      0.0368770
    104    103      5      0.0000000      6.3569736      8.2744102      1.9315293
    105    104      5      0.0000000      4.1509528     10.5460882      2.0067041
    106    105      2      0.0000000      1.9688426     10.5256958      2.0934224
    107    106      1      0.0000000      0.0777095      8.4380674     25.2970924
    108    107      5      0.0000000      1.7411085     10.3960028     25.2861023
    109    108      5      0.0000000      2.0049493      8.5041599      1.9799632
    110    109      5      0.0000000     25.1242027     10.6988716      2.0783224
    111    110      2      0.0000000     10.6650038      6.3297801      2.0950065
    112    111      1      0.0000000      8.2646856      4.0823717     25.1494598
    113    112      5      0.0000000     10.8249607      6.3663278      0.0538395
    114    113      5      0.0000000     10.5203867      4.1795273      2.0110955
    115    114      5      0.0000000      8.4462748      6.5018435      2.3554568
    116    115      2      0.0000000      6.1989913      6.2254610      1.9694093
    117    116      1      0.0000000      4.3541832      3.9474447     25.2100506
    118    117      5      0.0000000      6.2748389      6.2342176     25.1983471
    119    118      5      0.0000000      6.2956967      4.2367702      1.8805234
    120    119      5      0.0000000      4.1592102      6.1766176      1.9609964
    121    120      2      0.0000000      2.1326623      6.1827989      2.0815077
    122    121      1      0.0000000     25.2173405      4.2068377     25.1414356
    123    122      5      0.0000000      2.0479186      6.1248293     25.2870159
    124    123      5      0.0000000      2.1082764      4.0372024      2.1631253
    125    124      5      0.0000000     25.2895489      6.3011069      2.1859593
    126    125      2      0.0000000     10.5468216      2.0124629      2.0364032
    127    126      1      0.0000000      8.4689827     25.2685452     25.2387791
    128    127      5      0.0000000     10.6931047      1.8274233      0.0266054
    129    128      5      0.0000000     10.5785818     25.3021717      2.4452143
    130    129      5      0.0000000      8.4170265      2.1336906      1.8073097
    131    130      2      0.0000000      6.2080045      1.9716607      1.9863585
    132    131      1      0.0000000      4.0471134      0.0745331      0.0306954
    133    132      5      0.0000000      6.2933893      1.8915920     25.2473793
    134    133      5      0.0000000      6.2465019     25.2073288      2.3171418
    135    134      5      0.0000000      4.2321548      2.0887685      1.9551202
    136    135      5      0.0000000      4.1410484      6.1176510      6.2008705
    137    136      2      0.0000000     14.6885700     14.5570259     14.7691584
    138    137      1      0.0000000     12.6900005     12.5476103     12.5918169
    139    138      5      0.0000000     14.7592945     14.3412714     12.6117210
    140    139      5      0.0000000     14.8973598     12.5396795     14.7059383
    141    140      5      0.0000000     12.5409050     14.4890833     14.8333712
    142    141      2      0.0000000     23.3720531     23.1015739     23.2410984
    143    142      1      0.0000000     21.0676365     21.0478001     20.9153728
    144    143      5      0.0000000     23.4066658     23.2691307     21.0167713
    145    144      5      0.0000000     23.3232727     20.8623257     23.1909142
    146    145      5      0.0000000     21.1668072     22.8961525     23.2425613
    147    146      2      0.0000000     19.0369053     23.0526237     23.2301521
    148    147      1      0.0000000     16.8441696     21.0082035     21.0548077
    149    148      5      0.0000000     19.2054825     23.1261654     21.0498085
    150    149      5      0.0000000     18.7149239     21.0547371     23.2482662
    151    150      5      0.0000000     16.7648563     23.2707596     23.2927380
    152    151      2      0.0000000     14.7598248     23.1191807     23.1371689
    153    152      1      0.0000000     12.4485083     21.2134476     21.2139664
    154    153      5      0.0000000     14.9863367     23.0777225     21.0389690
    155    154      5      0.0000000     14.5960712     21.0297623     23.1096745
    156    155      5      0.0000000     12.5310030     22.8806477     23.1466370
    157    156      2      0.0000000     23.2258263     18.9290504     23.1189671
    158    157      1      0.0000000     21.0981884     16.9398479     21.2686195
    159    158      5      0.0000000     23.3304901     19.0681896     21.1000023
    160    159      5      0.0000000     23.3068962     16.8396969     22.9421005
    161    160      5      0.0000000     20.9693031     18.9840660     23.1798649
    162    161      2      0.0000000     18.8842010     19.0244884     23.1496391
    163    162      1      0.0000000     17.0205822     16.8036537     21.0793934
    164    163      5      0.0000000     18.7430325     19.1055946     20.9154549
    165    164      5      0.0000000     19.0661011     16.9040737     23.0192070
    166    165      5      0.0000000     16.8195019     19.0441380     23.2251759
    167    166      2      0.0000000     14.7645950     19.1035786     23.0171223
    168    167      1      0.0000000     12.4566593     16.8537426     21.0813560
    169    168      5      0.0000000     14.9337940     19.0973263     21.0288601
    170    169      5      0.0000000     14.9551611     16.8975258     23.1175003
    171    170      5      0.0000000     12.7088308     18.9141674     23.0346928
    172    171      2      0.0000000     23.1171703     14.6872311     23.1734638
    173    172      1      0.0000000     20.9533596     12.5962667     21.1676655
    174    173      5      0.0000000     23.2894554     14.7082834     21.1948833
    175    174      5      0.0000000     23.0399799     12.6990843     23.2806683
    176    175      5      0.0000000     21.0123119     14.9095573     23.0513687
    177    176      2      0.0000000     18.9760780     14.8670168     23.0969887
    178    177      1      0.0000000     16.8433247     12.5759602     21.0243912
    179    178      5      0.0000000     18.9172459     14.8925705     21.0731773
    180    179      5      0.0000000     19.0452595     12.7370396     23.0590248
    181    180      5      0.0000000     16.7782269     14.6517639     23.1054153
    182    181      2      0.0000000     14.7785225     14.5980053     23.1051121
    183    182      1      0.0000000     12.5108290     12.3564968     21.3173218
    184    183      5      0.0000000     14.5917912     14.4579926     21.0086708
    185    184      5      0.0000000     14.8684464     12.5590038     23.3594608
    186    185      5      0.0000000     12.6511927     14.7869778     23.2725468
    187    186      2      0.0000000     23.3937492     23.1463718     18.8904400
    188    187      1      0.0000000     20.9861908     21.2914677     16.6683540
    189    188      5      0.0000000     23.3021259     23.1081905     16.7528629
    190    189      5      0.0000000     23.3033352     21.0902939     19.0506897
    191    190      5      0.0000000     21.1407509     23.1544151     18.7928905
    192    191      2      0.0000000     19.0472507     23.0289745     18.9511108
    193    192      1      0.0000000     16.8739777     20.9642258     17.0752773
    194    193      5      0.0000000     18.9076271     23.0213547     16.9182320
    195    194      5      0.0000000     19.1329117     21.0558681     18.8501282
    196    195      5      0.0000000     16.9262638     23.2661610     19.0746136
    197    196      2      0.0000000     14.7603760     23.1787262     18.9104347
    198    197      1      0.0000000     12.8947573     21.1636143     16.8738365
    199    198      5      0.0000000     14.7299700     23.1415920     16.9443855
    200    199      5      0.0000000     14.9450674     20.9189644     18.6291389
    201    200      5      0.0000000     12.5745411     23.0379105     18.8975792
    202    201      2      0.0000000     23.2932320     18.9666023     18.8969822
    203    202      1      0.0000000     21.2237816     16.7603416     17.0676575
    204    203      5      0.0000000     23.4019241     18.9177074     16.9372959
    205    204      5      0.0000000     23.1990986     16.7702942     18.7611313
    206    205      5      0.0000000     21.2152061     18.9767609     19.0296154
    207    206      2      0.0000000     19.1112213     19.0430241     18.8423672
    208    207      1      0.0000000     17.0135040     16.9716873     16.9226151
    209    208      5      0.0000000     18.8167038     19.2751694     16.7453156
    210    209      5      0.0000000     19.2260990     16.9960232     18.7892075
    211    210      5      0.0000000     17.0191097     19.1008434     18.9077110
    212    211      2      0.0000000     14.9753904     18.8879089     19.0539722
    213    212      1      0.0000000     12.4017897     16.9103642     16.8929214
    214    213      5      0.0000000     15.0037689     18.9113560     16.9266319
    215    214      5      0.0000000     15.1073046     16.9029026     19.1755199
    216    215      5      0.0000000     12.6154470     18.7750092     19.0136948
    217    216      2      0.0000000     23.1586113     14.7288103     19.1179657
    218    217      1      0.0000000     20.9522800     12.6707983     16.9462357
    219    218      5      0.0000000     23.2469368     14.7381458     16.9785538
    220    219      5      0.0000000     23.0294552     12.5685024     18.8821812
    221    220      5      0.0000000     21.1908016     14.7481909     19.2271824
    222    221      2      0.0000000     18.8798618     14.8218069     19.0636883
    223    222      1      0.0000000     16.8740807     12.6508503     16.9407921
    224    223      5      0.0000000     18.9007511     14.7513943     16.9315491
    225    224      5      0.0000000     18.9896278     12.7309675     19.1147976
    226    225      5      0.0000000     16.8425369     14.8568850     18.8937855
    227    226      2      0.0000000     14.8087540     14.7156315     18.9861641
    228    227      1      0.0000000     12.5242739     12.3327408     16.8912735
    229    228      5      0.0000000     14.5541677     14.8978214     16.7750111
    230    229      5      0.0000000     14.9758377     12.4721022     18.9751396
    231    230      5      0.0000000     12.6144600     14.7827625     19.0577011
    232    231      2      0.0000000     23.3137398     23.0700207     14.6589479
    233    232      1      0.0000000     21.1596355     20.9400749     12.7435837
    234    233      5      0.0000000     23.1933746     23.3353271     12.5309935
    235    234      5      0.0000000     23.2079544     20.9273739     14.5464182
    236    235      5      0.0000000     21.0413399     22.9856472     14.7543545
    237    236      2      0.0000000     18.9469643     23.1593513     14.7689362
    238    237      1      0.0000000     16.8017159     21.0069027     12.6457386
    239    238      5      0.0000000     18.9959278     23.0716648     12.6148062
    240    239      5      0.0000000     18.8105087     21.0876026     14.5975466
    241    240      5      0.0000000     16.7828560     23.3168755     14.7305546
    242    241      2      0.0000000     14.7265434     23.1554165     14.7531624
    243    242      1      0.0000000     12.7589722     21.0370693     12.7705975
    244    243      5      0.0000000     14.6627331     23.0678768     12.6098852
    245    244      5      0.0000000     14.7537413     20.9592190     14.7077751
    246    245      5      0.0000000     12.6646185     23.0741348     14.6111107
    247    246      2      0.0000000     23.1220837     18.9332161     14.8243494
    248    247      1      0.0000000     21.1655331     16.8957787     12.5651541
    249    248      5      0.0000000     22.9679585     18.7430115     12.6013966
    250    249      5      0.0000000     23.0506039     16.7924862     14.7243376
    251    250      5      0.0000000     21.1793308     18.8559170     15.1294765
    252    251      2      0.0000000     18.7997704     18.9661236     14.7017956
    253    252      1      0.0000000     16.8139820     16.8417397     12.8325806
    254    253      5      0.0000000     19.0962734     19.0413380     12.7424011
    255    254      5      0.0000000     18.9724293     16.7923012     14.6775808
    256    255      5      0.0000000     16.7447968     18.8369465     14.5650501
    257    256      2      0.0000000     14.6519365     18.8530140     14.7714815
    258    257      1      0.0000000     12.6947880     16.7378120     12.4722776
    259    258      5      0.0000000     14.7135057     18.8942261     12.5622978
    260    259      5      0.0000000     14.6402302     16.7004185     14.6386013
    261    260      5      0.0000000     12.6927671     19.0530949     14.8066235
    262    261      2      0.0000000     23.0727978     14.6807470     14.9269581
    263    262      1      0.0000000     21.2813740     12.6049471     12.5452805
    264    263      5      0.0000000     23.1939354     14.6768713     12.4494200
    265    264      5      0.0000000     23.0738945     12.4481182     14.6576614
    266    265      5      0.0000000     21.0102501     14.5542574     15.0394039
    267    266      2      0.0000000     19.0388775     14.7323790     14.8359442
    268    267      1      0.0000000     16.7419567     12.5254784     13.0449286
    269    268      5      0.0000000     19.2486591     14.7211304     12.7391262
    270    269      5      0.0000000     18.9869213     12.6274376     14.7600517
    271    270      5      0.0000000     16.8539696     14.8426018     14.8753719
    272    271      2      0.0000000      2.0904627     14.6714582     14.7437592
    273    272      1      0.0000000     25.1931801     12.6261120     12.4062252
    274    273      5      0.0000000      2.1051283     14.6373959     12.5435839
    275    274      5      0.0000000      2.1610556     12.6021881     14.6998758
    276    275      5      0.0000000      0.0219760     14.7844973     14.7830820
    277    276      2      0.0000000     10.4250536     23.1198578     23.1120548
    278    277      1      0.0000000      8.2937851     20.9639511     21.1841297
    279    278      5      0.0000000     10.6267462     23.3764038     21.0036640
    280    279      5      0.0000000     10.3557291     21.0433655     23.0511150
    281    280      5      0.0000000      8.3264513     23.2472820     23.1252766
    282    281      2      0.0000000      6.2726583     23.1256084     23.0791149
    283    282      1      0.0000000      4.0832038     21.0100327     21.2595654
    284    283      5      0.0000000      6.2459750     22.8137798     21.0502338
    285    284      5      0.0000000      6.3500233     21.0253811     23.3375111
    286    285      5      0.0000000      4.1830688     23.1529026     22.9925327
    287    286      2      0.0000000      2.1640372     23.2322845     23.2775841
    288    287      1      0.0000000      0.1816597     21.1308422     21.1038151
    289    288      5      0.0000000      2.0113420     23.0170250     21.1241798
    290    289      5      0.0000000      2.2810225     20.8941193     23.1131363
    291    290      5      0.0000000      0.0577474     23.1324425     23.3755970
    292    291      2      0.0000000     10.5071573     18.8849297     23.2493629
    293    292      1      0.0000000      8.4509373     16.8803387     21.2974415
    294    293      5      0.0000000     10.5903940     18.6173725     21.2188053
    295    294      5      0.0000000     10.5323362     16.7416229     23.5723152
    296    295      5      0.0000000      8.4044170     18.9537926     23.1178970
    297    296      2      0.0000000      6.3100224     18.7318363     23.1874695
    298    297      1      0.0000000      4.3099585     16.6139774     21.1110077
    299    298      5      0.0000000      6.0829878     18.7245197     21.1772995
    300    299      5      0.0000000      6.4489985     16.7319813     23.0787907
    301    300      5      0.0000000      4.1572618     18.7883587     23.3452892
    302    301      2      0.0000000      1.9465060     18.8343010     23.2128963
    303    302      1      0.0000000      0.1713444     16.9402161     21.0420456
    304    303      5      0.0000000      1.8951601     18.9445057     21.0768433
    305    304      5      0.0000000      2.0700176     16.7779903     23.0895367
    306    305      5      0.0000000     25.2907753     18.8525639     23.3721371
    307    306      2      0.0000000     10.5297956     14.5991831     23.3602104
    308    307      1      0.0000000      8.5349264     12.7074699     21.2499847
    309    308      5      0.0000000     10.4743586     14.6001806     21.2153893
    310    309      5      0.0000000     10.5240517     12.4869862     23.0495224
    311    310      5      0.0000000      8.4672890     14.6618595     23.1943913
    312    311      2      0.0000000      6.4791856     14.7279873     23.2050648
    313    312      1      0.0000000      4.3441806     12.4441404     21.1830845
    314    313      5      0.0000000      6.3896160     14.5413685     21.2008896
    315    314      5      0.0000000      6.4789000     12.5404301     23.2474861
    316    315      5      0.0000000      4.3890800     14.8926105     23.3508091
    317    316      2      0.0000000      2.1414955     14.7209473     23.2552452
    318    317      1      0.0000000     25.2700424     12.3735886     21.1238499
    319    318      5      0.0000000      2.3148291     14.7189398     21.1299496
    320    319      5      0.0000000      2.3438206     12.6392651     23.2066250
    321    320      5      0.0000000      0.0256305     14.7212086     23.3490772
    322    321      2      0.0000000     10.5665436     22.9997158     18.9120197
    323    322      1      0.0000000      8.5278959     20.9822540     17.0762615
    324    323      5      0.0000000     10.6268511     22.7837734     16.8806286
    325    324      5      0.0000000     10.5132809     21.0694847     19.2524414
    326    325      5      0.0000000      8.4479828     23.0576324     18.9486313
    327    326      2      0.0000000      6.3051615     23.0914078     19.0601521
    328    327      1      0.0000000      4.3240185     20.7296772     16.9618893
    329    328      5      0.0000000      6.2347312     23.1024456     17.0909309
    330    329      5      0.0000000      6.3733940     20.8884010     19.1307392
    331    330      5      0.0000000      4.2109814     23.3125172     19.2102852
    332    331      2      0.0000000      2.2070889     23.3033409     19.0763531
    333    332      1      0.0000000      0.1512481     21.0395584     16.8551273
    334    333      5      0.0000000      2.3046179     23.2030239     16.9252739
    335    334      5      0.0000000      2.2016597     21.1892223     18.9942265
    336    335      5      0.0000000      0.0276087     23.3419800     18.9476948
    337    336      2      0.0000000     10.5150213     18.9784908     19.0632858
    338    337      1      0.0000000      8.4977551     16.8346252     16.7973366
    339    338      5      0.0000000     10.2891474     19.1377029     16.8298550
    340    339      5      0.0000000     10.4985323     16.7819691     18.9662933
    341    340      5      0.0000000      8.3600893     18.8502235     19.1071606
    342    341      2      0.0000000      6.2847095     18.8050919     18.9744225
    343    342      1      0.0000000      4.2288532     16.5343761     17.1454220
    344    343      5      0.0000000      6.3679199     18.7637081     16.9093819
    345    344      5      0.0000000      6.1765194     16.6119614     19.0703545
    346    345      5      0.0000000      4.1736426     18.8803730     19.0370770
    347    346      2      0.0000000      2.1703470     18.8194485     19.1107063
    348    347      1      0.0000000     25.2672043     16.7163429     16.8525257
    349    348      5      0.0000000      2.0829480     18.8533840     16.9264050
    350    349      5      0.0000000      2.2335839     16.6701241     19.0517540
    351    350      5      0.0000000      0.0530643     18.7435036     19.0132275
    352    351      2      0.0000000     10.5699949     14.7258921     19.1179676
    353    352      1      0.0000000      8.4491749     12.6388378     17.0177460
    354    353      5      0.0000000     10.3842926     14.4410019     16.9444160
    355    354      5      0.0000000     10.6152468     12.4080915     19.0347691
    356    355      5      0.0000000      8.4520006     14.7201385     18.9762688
    357    356      2      0.0000000      6.3400183     14.5177202     18.8729553
    358    357      1      0.0000000      4.2862048     12.4260035     16.8336582
    359    358      5      0.0000000      6.4032140     14.8937674     16.8082905
    360    359      5      0.0000000      6.4857974     12.4289360     18.8365746
    361    360      5      0.0000000      4.3425598     14.4245920     18.9382133
    362    361      2      0.0000000      2.1931074     14.3937778     19.1026745
    363    362      1      0.0000000      0.0874833     12.6427002     16.7406502
    364    363      5      0.0000000      2.0832641     14.4266891     16.8515434
    365    364      5      0.0000000      2.2628946     12.4286489     18.9878311
    366    365      5      0.0000000      0.1081068     14.4381485     19.1726036
    367    366      2      0.0000000     10.5654917     23.1850357     14.6761093
    368    367      1      0.0000000      8.5935926     21.0676155     12.6551752
    369    368      5      0.0000000     10.5252295     23.0490456     12.7074995
    370    369      5      0.0000000     10.5009861     21.0211449     14.5367661
    371    370      5      0.0000000      8.3611794     23.0757198     14.8557673
    372    371      2      0.0000000      6.3030744     23.0667439     14.8709564
    373    372      1      0.0000000      4.1778755     20.7994976     12.6940603
    374    373      5      0.0000000      6.4527769     23.1022911     12.7529430
    375    374      5      0.0000000      6.2636099     21.0011940     14.8172674
    376    375      5      0.0000000      4.1412706     23.1129742     14.7702999
    377    376      2      0.0000000      2.0735919     23.1354980     14.7850780
    378    377      1      0.0000000     25.2715797     21.0656834     12.6470222
    379    378      5      0.0000000      2.3100255     23.2135067     12.5942440
    380    379      5      0.0000000      1.8187109     21.0858421     14.8541985
    381    380      5      0.0000000     25.3145752     23.0859203     14.6839981
    382    381      2      0.0000000     10.6140680     18.9641781     14.6538725
    383    382      1      0.0000000      8.1659355     16.8315010     12.8720322
    384    383      5      0.0000000     10.4618864     18.7627792     12.6047277
    385    384      5      0.0000000     10.7660160     16.7745743     14.7273216
    386    385      5      0.0000000      8.3566666     18.9591541     14.5047493
    387    386      2      0.0000000      6.3208551     18.9840355     14.8768015
    388    387      1      0.0000000      4.3784366     16.7234802     12.6599836
    389    388      5      0.0000000      6.1509614     18.9833908     12.6871376
    390    389      5      0.0000000      6.0983505     16.9021854     14.8615589
    391    390      5      0.0000000      4.0605383     19.0491505     14.7571144
    392    391      2      0.0000000      2.0981867     18.7446308     14.7840958
    393    392      1      0.0000000     25.0334148     16.6742554     12.9899216
    394    393      5      0.0000000      2.2224088     18.9360085     12.8180752
    395    394      5      0.0000000      2.1681361     16.5879421     14.8233376
    396    395      5      0.0000000     25.2822819     18.7336807     14.8588686
    397    396      2      0.0000000     10.4971056     14.6281967     14.7510548
    398    397      1      0.0000000      8.7002525     12.7160978     12.6549034
    399    398      5      0.0000000     10.3213606     14.7331314     12.6328592
    400    399      5      0.0000000     10.5477610     12.6056108     14.6460600
    401    400      5      0.0000000      8.4710302     14.8310232     14.7468615
    402    401      2      0.0000000      6.3567920     14.7371073     14.6932201
    403    402      1      0.0000000      4.1581531     12.4157171     12.7100248
    404    403      5      0.0000000      6.4113269     15.0153561     12.5510931
    405    404      5      0.0000000      6.4166670     12.6682281     14.6776190
    406    405      5      0.0000000      4.3519444     14.4722939     14.5093937
    407    406      2      0.0000000     14.6849518      2.0693908     14.8313684
    408    407      1      0.0000000     12.8707581      0.0451504     12.6909504
    409    408      5      0.0000000     14.8805799      2.0474951     12.7689209
    410    409      5      0.0000000     14.5641756     25.2109528     14.9443588
    411    410      5      0.0000000     12.6276817      2.0490391     14.7804089
    412    411      2      0.0000000     23.2468834     10.6079950     23.1804829
    413    412      1      0.0000000     21.2046204      8.5464554     20.9911747
    414    413      5      0.0000000     23.2393017     10.4832125     21.0864563
    415    414      5      0.0000000     23.4094906      8.3828754     23.2805119
    416    415      5      0.0000000     21.1249580     10.6039295     22.9781418
    417    416      2      0.0000000     18.9856339     10.5779610     23.2040844
    418    417      1      0.0000000     16.9139786      8.1162043     21.4138565
    419    418      5      0.0000000     18.8432598     10.5308981     21.1039028
    420    419      5      0.0000000     18.9834003      8.3376284     23.3291435
    421    420      5      0.0000000     16.8561611     10.5569077     23.2476692
    422    421      2      0.0000000     14.7160654     10.5314617     23.2620926
    423    422      1      0.0000000     12.8257771      8.4266520     21.0361633
    424    423      5      0.0000000     14.7271729     10.2464972     21.2446766
    425    424      5      0.0000000     14.7497654      8.4110794     23.2117443
    426    425      5      0.0000000     12.6760569     10.5219507     23.3238487
    427    426      2      0.0000000     23.3234520      6.1646881     23.1271553
    428    427      1      0.0000000     21.2833691      4.3158236     20.9281769
    429    428      5      0.0000000     23.3340263      6.1928515     20.8674145
    430    429      5      0.0000000     23.2138786      4.0619578     23.1273499
    431    430      5      0.0000000     21.2434673      6.2670627     23.0154362
    432    431      2      0.0000000     19.0821629      6.2423034     23.2948456
    433    432      1      0.0000000     17.0097275      4.2428417     21.0753155
    434    433      5      0.0000000     19.0071049      6.5891070     21.0164700
    435    434      5      0.0000000     19.0251732      4.2526360     23.0210152
    436    435      5      0.0000000     16.9457417      6.4102988     23.3444958
    437    436      2      0.0000000     14.8364992      6.2202320     23.3992252
    438    437      1      0.0000000     12.4936838      4.2360444     21.0921650
    439    438      5      0.0000000     15.1884804      6.0509510     21.2097530
    440    439      5      0.0000000     14.7769041      4.2337675     23.2587414
    441    440      5      0.0000000     12.8021650      6.2110887     23.4067364
    442    441      2      0.0000000     23.2250118      2.0197549     23.0785198
    443    442      1      0.0000000     21.0074348     24.9696560     20.9059296
    444    443      5      0.0000000     23.2006721      2.0332346     20.9702854
    445    444      5      0.0000000     23.1728268     25.1854820     23.3128777
    446    445      5      0.0000000     21.0568180      1.9099689     23.1807671
    447    446      2      0.0000000     19.0829735      1.8579026     23.1770020
    448    447      1      0.0000000     16.8768082     25.2380524     21.0457458
    449    448      5      0.0000000     18.9081135      1.8300948     21.0196190
    450    449      5      0.0000000     18.9833279     25.1253319     23.3709412
    451    450      5      0.0000000     16.8167057      2.2191119     23.1729889
    452    451      2      0.0000000     14.7620640      2.1688204     23.1661224
    453    452      1      0.0000000     12.5215178     25.2331791     21.1220093
    454    453      5      0.0000000     14.8382759      1.9473864     21.1015263
    455    454      5      0.0000000     14.6323023     25.2104378     23.0963612
    456    455      5      0.0000000     12.6597729      2.2070868     23.1967068
    457    456      2      0.0000000     23.2253456     10.4386644     18.8722820
    458    457      1      0.0000000     21.0977478      8.5334806     16.8818378
    459    458      5      0.0000000     23.3923721     10.5052700     16.9043884
    460    459      5      0.0000000     23.1893330      8.2455349     18.8493404
    461    460      5      0.0000000     21.0629330     10.3720102     19.1095352
    462    461      2      0.0000000     18.9590626     10.4770346     19.0476627
    463    462      1      0.0000000     16.9502602      8.5503216     17.0692959
    464    463      5      0.0000000     19.1683578     10.5956564     17.0024033
    465    464      5      0.0000000     19.0659695      8.2936201     18.7752647
    466    465      5      0.0000000     16.9912872     10.4687080     18.9315891
    467    466      2      0.0000000     14.9520664     10.3773956     19.1352158
    468    467      1      0.0000000     12.6883154      8.3968401     16.7722607
    469    468      5      0.0000000     15.1029778     10.3761320     16.8442879
    470    469      5      0.0000000     14.6697521      8.4145679     18.8746910
    471    470      5      0.0000000     12.7510548     10.5742512     19.1273975
    472    471      2      0.0000000     23.2431736      6.3027229     18.8598995
    473    472      1      0.0000000     21.1089687      4.2759809     16.9986668
    474    473      5      0.0000000     23.2730541      6.2693176     16.6897354
    475    474      5      0.0000000     23.3077564      4.3017311     18.8413296
    476    475      5      0.0000000     20.9837437      6.1773643     19.0682430
    477    476      2      0.0000000     18.9840565      6.3637819     18.9940281
    478    477      1      0.0000000     16.9587879      4.0824900     16.8301239
    479    478      5      0.0000000     19.1463757      6.1796608     16.8836327
    480    479      5      0.0000000     18.9817905      4.1828823     18.9895916
    481    480      5      0.0000000     16.9137955      6.3113966     18.9091091
    482    481      2      0.0000000     14.8370781      6.2183471     18.8846550
    483    482      1      0.0000000     12.8236132      4.3173418     16.9179993
    484    483      5      0.0000000     14.5913305      6.1254301     16.8905945
    485    484      5      0.0000000     14.9522676      4.1873903     18.9420872
    486    485      5      0.0000000     12.7826061      6.1475449     19.0710278
    487    486      2      0.0000000     23.3055878      2.1409431     18.9541092
    488    487      1      0.0000000     21.0941925      0.0995282     16.9149837
    489    488      5      0.0000000     22.9812641      2.3457067     16.8595142
    490    489      5      0.0000000     23.3374214     25.2610149     18.7945213
    491    490      5      0.0000000     21.0783882      2.1386454     18.9517365
    492    491      2      0.0000000     18.9789829      2.0966311     18.9798183
    493    492      1      0.0000000     16.8689556     25.2083282     16.7526684
    494    493      5      0.0000000     18.6152668      2.2381482     16.9178104
    495    494      5      0.0000000     19.1438580     25.2576656     18.8557701
    496    495      5      0.0000000     16.7980156      1.6663431     18.9537716
    497    496      2      0.0000000     14.8144903      1.9322984     19.0248241
    498    497      1      0.0000000     12.5402699     25.2701721     17.0914097
    499    498      5      0.0000000     14.6732292      2.0402405     16.9394970
    500    499      5      0.0000000     14.6027670     25.1784229     19.0038967
    501    500      5      0.0000000     12.6107378      1.8729221     19.0444870
    502    501      2      0.0000000     23.1944008     10.3692503     14.6759930
    503    502      1      0.0000000     21.2545986      8.2193232     12.5393038
    504    503      5      0.0000000     23.1824379     10.3805637     12.6294241
    505    504      5      0.0000000     23.4692860      8.3749695     14.7348871
    506    505      5      0.0000000     21.1047707     10.5323839     14.7370548
    507    506      2      0.0000000     19.0713348     10.5490170     14.7848167
    508    507      1      0.0000000     17.1310253      8.3875866     12.7208662
    509    508      5      0.0000000     19.0582638     10.3063736     12.6702290
    510    509      5      0.0000000     18.9525604      8.3702564     14.9555397
    511    510      5      0.0000000     17.0144844     10.5664988     14.7543068
    512    511      2      0.0000000     14.9500437     10.3619938     14.6780376
    513    512      1      0.0000000     12.7812548      8.3432388     12.7917175
    514    513      5      0.0000000     15.0861731     10.3296604     12.7222557
    515    514      5      0.0000000     14.8103733      8.3710556     14.6881714
    516    515      5      0.0000000     12.7642269     10.3610125     14.7341003
    517    516      2      0.0000000     23.3238850      6.3460889     14.6535902
    518    517      1      0.0000000     21.2586384      4.0460386     12.5737534
    519    518      5      0.0000000     23.4803638      6.2642469     12.6475706
    520    519      5      0.0000000     23.1723862      4.1199999     14.4410143
    521    520      5      0.0000000     21.1511345      6.7234259     14.5984764
    522    521      2      0.0000000     19.0781498      6.3771682     14.8608170
    523    522      1      0.0000000     16.9692383      4.0201769     12.8340578
    524    523      5      0.0000000     19.0893021      6.4319935     12.8112764
    525    524      5      0.0000000     19.1804028      4.2680535     14.7281246
    526    525      5      0.0000000     16.9470253      6.2890377     15.0505638
    527    526      2      0.0000000     14.8519096      6.3004532     14.7021456
    528    527      1      0.0000000     12.8106852      4.5326781     12.7099457
    529    528      5      0.0000000     15.0081434      6.2991252     12.6155615
    530    529      5      0.0000000     14.8259878      4.2883401     14.7300882
    531    530      5      0.0000000     12.7473946      6.4911671     14.6089716
    532    531      2      0.0000000     23.2393818      1.9986266     14.8000355
    533    532      1      0.0000000     21.0733738     25.1361771     12.4368534
    534    533      5      0.0000000     23.3732262      2.0314395     12.5653486
    535    534      5      0.0000000     23.2324829     25.2281914     14.5557108
    536    535      5      0.0000000     21.1838760      1.9185818     14.8405237
    537    536      2      0.0000000     19.0777798      2.0529044     14.8659325
    538    537      1      0.0000000     16.9346848     24.9409332     12.6616631
    539    538      5      0.0000000     18.9820175      2.0153189     12.7898369
    540    539      5      0.0000000     19.2330856     25.3121662     14.8862782
    541    540      5      0.0000000     16.7528591      2.0862310     14.7758579
    542    541      2      0.0000000      2.0955935      1.9690679     14.7987604
    543    542      1      0.0000000     25.2918243      0.1038802     12.5531664
    544    543      5      0.0000000      2.1907158      1.9206468     12.5526352
    545    544      5      0.0000000      2.1782849     25.3095741     15.0790644
    546    545      5      0.0000000      0.0573999      1.8406166     15.1107855
    547    546      2      0.0000000     10.5738907     10.3431263     23.2879219
    548    547      1      0.0000000      8.4919424      8.3309221     21.0270367
    549    548      5      0.0000000     10.4104290     10.3300447     21.0422993
    550    549      5      0.0000000     10.9141054      8.3907261     23.1897869
    551    550      5      0.0000000      8.5399666     10.5591478     23.5355949
    552    551      2      0.0000000      6.3104510     10.3530083     23.2145901
    553    552      1      0.0000000      4.5373020      8.3790245     21.1499062
    554    553      5      0.0000000      6.3266301     10.2634926     21.0914917
    555    554      5      0.0000000      6.3917050      8.3280954     23.3188934
    556    555      5      0.0000000      4.3368149     10.3955040     23.0623074
    557    556      2      0.0000000      2.2448678     10.4884748     23.1833534
    558    557      1      0.0000000     25.2704468      8.3771839     21.0789375
    559    558      5      0.0000000      2.3296542     10.4698534     21.0904255
    560    559      5      0.0000000      2.1770284      8.5104818     23.1685505
    561    560      5      0.0000000     25.2943382     10.6588516     23.1385765
    562    561      2      0.0000000     10.6804790      6.4959073     23.3221245
    563    562      1      0.0000000      8.5190744      4.1094308     21.1318436
    564    563      5      0.0000000     10.5474691      6.2809424     21.0217743
    565    564      5      0.0000000     10.4464521      4.3091965     23.3603096
    566    565      5      0.0000000      8.4483614      6.2159414     23.1713428
    567    566      2      0.0000000      6.3515692      6.1483936     23.1498222
    568    567      1      0.0000000      4.4454026      4.2317066     21.0112000
    569    568      5      0.0000000      6.4958277      6.3977103     21.2129688
    570    569      5      0.0000000      6.2931724      4.0349412     23.1556969
    571    570      5      0.0000000      4.2287817      6.2939596     23.2012405
    572    571      2      0.0000000      2.1546071      6.3062177     23.1307602
    573    572      1      0.0000000      0.1729299      4.4285803     20.7205162
    574    573      5      0.0000000      2.1780672      6.2620306     21.0124493
    575    574      5      0.0000000      2.2249215      4.2334824     23.2460766
    576    575      5      0.0000000      0.0697812      6.1408768     23.0518227
    577    576      2      0.0000000     10.6284552      2.1401823     23.2179279
    578    577      1      0.0000000      8.4700298     25.1363068     20.9393044
    579    578      5      0.0000000     10.5735159      2.0196898     21.0696125
    580    579      5      0.0000000     10.4002695     25.2564259     23.1755123
    581    580      5      0.0000000      8.5524502      2.0814455     23.1903362
    582    581      2      0.0000000      6.4598899      1.9093041     23.1857986
    583    582      1      0.0000000      4.2378817     25.2472954     21.0185776
    584    583      5      0.0000000      6.3734059      2.0232685     21.1143284
    585    584      5      0.0000000      6.3168583     25.0935650     23.0698128
    586    585      5      0.0000000      4.1288934      1.7553447     23.2115860
    587    586      2      0.0000000      2.0351636      2.0430264     23.1334114
    588    587      1      0.0000000     25.2723160      0.1434605     21.1047745
    589    588      5      0.0000000      1.9449410      2.0453360     21.1726837
    590    589      5      0.0000000      2.1660821     25.2465973     23.1119061
    591    590      5      0.0000000     25.2858658      1.8389224     23.1624279
    592    591      2      0.0000000     10.5733080     10.3473558     18.9886665
    593    592      1      0.0000000      8.6173496      8.5514250     16.8101978
    594    593      5      0.0000000     10.5099459     10.4913445     16.7068462
    595    594      5      0.0000000     10.6642590      8.3611012     19.0323277
    596    595      5      0.0000000      8.4349728     10.3837595     19.0012150
    597    596      2      0.0000000      6.4165502     10.4051170     18.9793682
    598    597      1      0.0000000      4.2039418      8.3699903     16.8266773
    599    598      5      0.0000000      6.4639454     10.5254612     16.7742176
    600    599      5      0.0000000      6.6181455      8.3880339     19.1845284
    601    600      5      0.0000000      4.3592620     10.4696293     18.9036655
    602    601      2      0.0000000      2.2604580     10.5312548     18.8957176
    603    602      1      0.0000000      0.1949958      8.0994024     16.8548717
    604    603      5      0.0000000      2.2524133     10.3706303     16.8631001
    605    604      5      0.0000000      2.3300951      8.2759314     18.9625835
    606    605      5      0.0000000      0.0801233     10.5552216     19.0217686
    607    606      2      0.0000000     10.5996027      6.1917100     18.9342537
    608    607      1      0.0000000      8.4292364      4.0780797     16.7803345
    609    608      5      0.0000000     10.6847706      6.2651982     16.7888622
    610    609      5      0.0000000     10.5203371      4.1656408     19.0236435
    611    610      5      0.0000000      8.5749359      6.2082677     18.8029442
    612    611      2      0.0000000      6.3977370      6.3317904     18.9506035
    613    612      1      0.0000000      4.2388754      3.9304709     16.7748222
    614    613      5      0.0000000      6.3166995      6.4340615     16.9188900
    615    614      5      0.0000000      6.4766035      4.1686373     19.0241108
    616    615      5      0.0000000      4.3070703      6.3524737     19.1854515
    617    616      2      0.0000000      2.3051560      6.3451195     19.0356007
    618    617      1      0.0000000      0.1249884      4.0535970     16.8625946
    619    618      5      0.0000000      2.0782514      6.2614875     16.7690868
    620    619      5      0.0000000      2.1106932      4.1824074     19.1174946
    621    620      5      0.0000000      0.1483588      6.3181238     18.8853111
    622    621      2      0.0000000     10.5529985      1.9658580     19.0324593
    623    622      1      0.0000000      8.2555351     25.1295109     17.0026379
    624    623      5      0.0000000     10.3821087      2.0575747     16.9201336
    625    624      5      0.0000000     10.5160809     25.1938820     18.7533092
    626    625      5      0.0000000      8.3257523      1.9854398     18.9000683
    627    626      2      0.0000000      6.3550491      2.0992596     18.9847507
    628    627      1      0.0000000      4.3176389     24.9506931     16.7882366
    629    628      5      0.0000000      6.1402526      1.7938894     16.8950367
    630    629      5      0.0000000      6.3197832     25.3034325     19.0790043
    631    630      5      0.0000000      4.2891269      2.4141862     18.9702339
    632    631      2      0.0000000      2.1754527      2.1392930     18.9037361
    633    632      1      0.0000000      0.0462288     25.1146069     17.0006104
    634    633      5      0.0000000      2.1076176      2.2025886     16.8694248
    635    634      5      0.0000000      2.1541555      0.1090305     18.9656200
    636    635      5      0.0000000      0.0651444      2.1617656     18.8014793
    637    636      2      0.0000000     10.5400801     10.4947443     14.6919556
    638    637      1      0.0000000      8.4572649      8.2949390     12.5813160
    639    638      5      0.0000000     10.4555817     10.4373617     12.6624136
    640    639      5      0.0000000     10.4543352      8.4266167     14.8593712
    641    640      5      0.0000000      8.4466133     10.5662889     14.3054962
    642    641      2      0.0000000      6.3324752     10.4027185     14.5716867
    643    642      1      0.0000000      4.2118502      8.4834652     12.6326094
    644    643      5      0.0000000      6.2137623     10.3696003     12.4976063
    645    644      5      0.0000000      6.4491501      8.3909559     14.5964241
    646    645      5      0.0000000      4.3000655     10.4372425     14.6226959
    647    646      2      0.0000000      2.0024824     10.6229057     14.6124649
    648    647      1      0.0000000      0.1119461      8.4507113     12.7820559
    649    648      5      0.0000000      1.9855385     10.5798273     12.5900660
    650    649      5      0.0000000      2.1611300      8.3330698     14.6134777
    651    650      5      0.0000000      0.1490181     10.4063902     14.6989145
    652    651      2      0.0000000     10.5785503      6.2839251     14.6893759
    653    652      1      0.0000000      8.5040159      4.0619149     12.7856283
    654    653      5      0.0000000     10.6220045      6.1661320     12.6371851
    655    654      5      0.0000000     10.6368589      4.1070280     14.9217892
    656    655      5      0.0000000      8.4886894      6.1223631     14.5960169
    657    656      2      0.0000000      6.3752828      6.2213645     14.5283041
    658    657      1      0.0000000      4.2304921      4.0681224     12.7137060
    659    658      5      0.0000000      6.3225255      6.5164824     12.3958006
    660    659      5      0.0000000      6.4805751      4.1728659     14.7021179
    661    660      5      0.0000000      4.1593094      6.2119002     14.6057425
    662    661      2      0.0000000      2.1730921      6.2634540     14.6658258
    663    662      1      0.0000000     25.1844902      4.2490892     12.4375820
    664    663      5      0.0000000      2.3758934      6.2193389     12.4690447
    665    664      5      0.0000000      2.1043570      4.1950483     14.7116919
    666    665      5      0.0000000      0.2266998      6.0571780     14.7135439
    667    666      2      0.0000000     10.5481377      2.1006968     14.7747631
    668    667      1      0.0000000      8.4548655     24.9966431     12.5532207
    669    668      5      0.0000000     10.6678152      2.2892041     12.5593948
    670    669      5      0.0000000     10.4813852     25.2350693     14.7839651
    671    670      5      0.0000000      8.4619188      2.0630500     14.7533894
    672    671      2      0.0000000      6.3371477      1.9001784     14.6856022
    673    672      1      0.0000000      4.1601858     25.3089428     12.4004173
    674    673      5      0.0000000      6.1991844      2.1548290     12.6101332
    675    674      5      0.0000000      6.4470043     25.1796818     14.7864218
    676    675      5      0.0000000      4.2737861      2.2342627     14.6941967
    677    676      2      0.0000000     14.7341518     14.6181364      2.0973358
    678    677      1      0.0000000     12.7753906     12.6448488      0.3006479
    679    678      5      0.0000000     14.6420317     14.7163467      0.0751169
    680    679      5      0.0000000     14.8313494     12.5021839      2.2225482
    681    680      5      0.0000000     12.5715408     14.5222397      2.2022264
    682    681      2      0.0000000     23.3472958     23.1959953     10.5335121
    683    682      1      0.0000000     21.1575165     21.0811138      8.3973379
    684    683      5      0.0000000     23.2761021     23.0956936      8.4009218
    685    684      5      0.0000000     23.3709488     20.9621868     10.6546974
    686    685      5      0.0000000     21.0500813     23.0993862     10.5767231
    687    686      2      0.0000000     19.0150433     23.0064259     10.6124706
    688    687      1      0.0000000     16.8219681     20.9840450      8.2508421
    689    688      5      0.0000000     19.1874504     23.1533756      8.6928492
    690    689      5      0.0000000     18.8164730     20.9794464     10.3466387
    691    690      5      0.0000000     16.7965317     23.2915230     10.6066875
    692    691      2      0.0000000     14.7211552     23.2410393     10.4285336
    693    692      1      0.0000000     12.5989304     20.9136009      8.5206490
    694    693      5      0.0000000     14.7997942     23.2310772      8.2885084
    695    694      5      0.0000000     14.9834509     21.0120716     10.5211086
    696    695      5      0.0000000     12.6688070     23.2599659     10.4348106
    697    696      2      0.0000000     23.2959175     18.8658390     10.6222277
    698    697      1      0.0000000     21.0267715     16.7117920      8.4300203
    699    698      5      0.0000000     23.3512764     18.6015129      8.6150312
    700    699      5      0.0000000     23.2046642     16.6742363     10.6685638
    701    700      5      0.0000000     20.9359970     19.2043362     10.7312508
    702    701      2      0.0000000     18.9259949     18.9551430     10.5799570
    703    702      1      0.0000000     17.0210342     16.8586521      8.5986738
    704    703      5      0.0000000     18.9968052     18.8347015      8.3500528
    705    704      5      0.0000000     19.0285244     16.8176880     10.6648769
    706    705      5      0.0000000     16.8204842     18.8373184     10.4834909
    707    706      2      0.0000000     14.6754532     18.8841019     10.5019798
    708    707      1      0.0000000     12.7608013     16.8513527      8.4149170
    709    708      5      0.0000000     14.9048519     18.8046799      8.4191170
    710    709      5      0.0000000     14.8430119     16.6586952     10.6569853
    711    710      5      0.0000000     12.6714277     18.8816090     10.4476433
    712    711      2      0.0000000     23.2223663     14.6781235     10.4522009
    713    712      1      0.0000000     20.8096313     12.6916351      8.6293583
    714    713      5      0.0000000     23.3228874     14.5421429      8.3999910
    715    714      5      0.0000000     22.8002319     12.5064011     10.3803883
    716    715      5      0.0000000     21.0454655     14.7628498     10.4558306
    717    716      2      0.0000000     19.0358315     14.6684990     10.6137218
    718    717      1      0.0000000     16.8003464     12.5768108      8.4968491
    719    718      5      0.0000000     18.8913326     14.7028236      8.4293537
    720    719      5      0.0000000     19.0478954     12.4793320     10.5877647
    721    720      5      0.0000000     17.0587025     14.6380491     10.5617838
    722    721      2      0.0000000     14.9406757     14.5861626     10.4962358
    723    722      1      0.0000000     12.7138863     12.6098680      8.6805944
    724    723      5      0.0000000     14.8183880     14.7070274      8.4411879
    725    724      5      0.0000000     14.8580999     12.5529299     10.5172615
    726    725      5      0.0000000     12.6778984     14.7658873     10.6555157
    727    726      2      0.0000000     23.1609211     23.1510849      6.2791085
    728    727      1      0.0000000     21.2304859     20.8895416      4.3524399
    729    728      5      0.0000000     23.4409389     23.1205845      4.1721249
    730    729      5      0.0000000     23.0780087     21.0714951      6.2441220
    731    730      5      0.0000000     20.9675903     23.1774426      6.1793952
    732    731      2      0.0000000     18.8471394     23.0741768      6.3990431
    733    732      1      0.0000000     17.0305424     20.8930054      4.3912539
    734    733      5      0.0000000     18.8298683     23.1426048      4.2412558
    735    734      5      0.0000000     19.0839443     21.0505600      6.2531495
    736    735      5      0.0000000     16.9051170     23.2070827      6.7050757
    737    736      2      0.0000000     14.7729282     23.1890507      6.2165046
    738    737      1      0.0000000     12.7529039     21.0218925      4.2790275
    739    738      5      0.0000000     14.9203377     23.1308498      4.2675490
    740    739      5      0.0000000     14.8079720     20.9541302      6.2974787
    741    740      5      0.0000000     12.7832594     23.3056107      6.1185331
    742    741      2      0.0000000     23.2459431     18.7736702      6.2536955
    743    742      1      0.0000000     20.9950066     16.8672333      3.9812248
    744    743      5      0.0000000     23.2073879     18.8504276      4.1433463
    745    744      5      0.0000000     23.3537140     16.6652260      6.2156591
    746    745      5      0.0000000     21.0058308     18.9940014      6.0974832
    747    746      2      0.0000000     19.0523338     18.9007778      6.2381787
    748    747      1      0.0000000     16.9200535     16.6002064      4.0813322
    749    748      5      0.0000000     18.9671154     18.6325512      4.1527457
    750    749      5      0.0000000     19.1563053     16.5802612      6.2642250
    751    750      5      0.0000000     16.9887161     19.0586910      6.2554479
    752    751      2      0.0000000     14.8856621     18.7881241      6.4299631
    753    752      1      0.0000000     12.3884363     16.9654427      4.2042389
    754    753      5      0.0000000     14.7976894     18.8479633      4.3350463
    755    754      5      0.0000000     14.9362211     16.7358246      6.3699918
    756    755      5      0.0000000     12.7267551     18.8558693      6.3124905
    757    756      2      0.0000000     23.2435493     14.5828218      6.1375837
    758    757      1      0.0000000     21.0329113     12.3828306      4.1958804
    759    758      5      0.0000000     23.1449718     14.5543556      4.0027232
    760    759      5      0.0000000     23.1057587     12.5897560      6.0605025
    761    760      5      0.0000000     21.0337982     14.3729591      6.2498493
    762    761      2      0.0000000     18.9750633     14.4983540      6.2348242
    763    762      1      0.0000000     17.0477200     12.9051723      4.0050135
    764    763      5      0.0000000     18.9104290     14.5261898      4.1243358
    765    764      5      0.0000000     18.7815514     12.4206104      6.2355494
    766    765      5      0.0000000     16.9363976     14.6967411      6.2241459
    767    766      2      0.0000000     14.8589010     14.7371054      6.3187537
    768    767      1      0.0000000     12.8838997     12.4406176      4.1941900
    769    768      5      0.0000000     14.8701115     14.6665192      4.2235508
    770    769      5      0.0000000     14.7431250     12.6120796      6.2188425
    771    770      5      0.0000000     12.6344175     14.8216705      6.4634695
    772    771      2      0.0000000     23.1439648     23.0668335      2.2123578
    773    772      1      0.0000000     21.1857014     20.8373566      0.1444920
    774    773      5      0.0000000     23.1467056     22.9019222      0.1310035
    775    774      5      0.0000000     23.0561638     21.0475750      1.8859699
    776    775      5      0.0000000     21.0552921     23.2479782      2.4198861
    777    776      2      0.0000000     18.9991856     23.0763302      2.1923482
    778    777      1      0.0000000     16.5623913     21.0806828      0.0062483
    779    778      5      0.0000000     19.2092228     23.1216011      0.1123390
    780    779      5      0.0000000     19.1483250     20.9456100      2.3827055
    781    780      5      0.0000000     16.8782234     23.0678692      2.0157001
    782    781      2      0.0000000     14.8038597     23.1795139      2.1937397
    783    782      1      0.0000000     12.5502338     21.1188736      0.0389872
    784    783      5      0.0000000     14.8147745     23.0600357     25.1881142
    785    784      5      0.0000000     14.7524576     21.0094357      2.1557112
    786    785      5      0.0000000     12.6977453     23.2941418      2.0015943
    787    786      2      0.0000000     23.2843208     18.9016972      1.9926772
    788    787      1      0.0000000     21.2899170     17.0881901      0.0193797
    789    788      5      0.0000000     23.1520405     18.7354527     25.1855469
    790    789      5      0.0000000     23.2566719     16.8346443      2.1767790
    791    790      5      0.0000000     21.2697754     18.7839127      1.8889384
    792    791      2      0.0000000     18.9680367     18.7822018      2.0671723
    793    792      1      0.0000000     16.2495022     16.8699226      0.0663800
    794    793      5      0.0000000     19.0619354     18.8948193     25.2741547
    795    794      5      0.0000000     18.6674080     16.8211880      1.9455739
    796    795      5      0.0000000     16.7715244     18.8642826      2.1997437
    797    796      2      0.0000000     14.8188190     18.8040543      2.2289674
    798    797      1      0.0000000     12.7525682     16.7742176     25.2371082
    799    798      5      0.0000000     14.6674042     18.9025898      0.0866309
    800    799      5      0.0000000     14.7768030     16.7468739      2.0478117
    801    800      5      0.0000000     12.5653172     18.9762039      2.2683921
    802    801      2      0.0000000     23.2917614     14.8457651      2.0098746
    803    802      1      0.0000000     21.1469002     12.4726362     25.1791897
    804    803      5      0.0000000     23.1632919     14.6748705     25.1411972
    805    804      5      0.0000000     23.1084766     12.7593651      2.0710130
    806    805      5      0.0000000     20.8582230     15.1193914      1.9808723
    807    806      2      0.0000000     18.8872814     14.8171701      1.7332917
    808    807      1      0.0000000     16.8284550     12.7019339     25.0098553
    809    808      5      0.0000000     18.8010159     14.9689045     25.1477242
    810    809      5      0.0000000     18.7502460     12.6308928      1.6926004
    811    810      5      0.0000000     16.7057610     14.6758623      1.9224854
    812    811      2      0.0000000      2.1120737     14.6614809      2.1704822
    813    812      1      0.0000000      0.1256176     12.6001520     25.2870350
    814    813      5      0.0000000      2.0986080     14.7199268     25.2807255
    815    814      5      0.0000000      2.0635619     12.4146137      2.0128257
    816    815      5      0.0000000      0.0697446     14.6358137      1.8272371
    817    816      2      0.0000000     10.6556139     23.1849079     10.6280718
    818    817      1      0.0000000      8.3934727     21.1239395      8.6636305
    819    818      5      0.0000000     10.7127962     23.2176361      8.4575090
    820    819      5      0.0000000     10.7643995     21.0314198     10.6004839
    821    820      5      0.0000000      8.4497862     23.0672626     10.5411196
    822    821      2      0.0000000      6.3379550     23.1426983     10.6980839
    823    822      1      0.0000000      4.1943483     21.2363110      8.4083710
    824    823      5      0.0000000      6.2994013     23.4829884      8.6474495
    825    824      5      0.0000000      6.4344139     21.0282307     10.5325899
    826    825      5      0.0000000      4.2440863     22.9067039     10.5968742
    827    826      2      0.0000000      2.2204244     23.1435242     10.5420818
    828    827      1      0.0000000     25.1814060     20.8804913      8.3352690
    829    828      5      0.0000000      2.3145733     23.0571709      8.5423603
    830    829      5      0.0000000      1.9671459     20.9270840     10.8261337
    831    830      5      0.0000000      0.0496653     23.0386620     10.4617405
    832    831      2      0.0000000     10.5069714     18.9598141     10.5677586
    833    832      1      0.0000000      8.4502649     17.0694942      8.3134527
    834    833      5      0.0000000     10.4412251     19.1864300      8.4833107
    835    834      5      0.0000000     10.4844389     16.9457531     10.5711718
    836    835      5      0.0000000      8.5836096     18.9985924     10.7847538
    837    836      2      0.0000000      6.3543534     19.0023098     10.6599903
    838    837      1      0.0000000      4.1389003     17.0406075      8.4263277
    839    838      5      0.0000000      6.3387771     18.9734001      8.5057144
    840    839      5      0.0000000      6.2151995     16.8933163     10.7775908
    841    840      5      0.0000000      4.1998215     19.0403519     10.4309416
    842    841      2      0.0000000      2.0546918     18.9181366     10.6860056
    843    842      1      0.0000000      0.0231634     16.8694496      8.3306303
    844    843      5      0.0000000      1.7610725     18.8534107      8.4049520
    845    844      5      0.0000000      2.3407195     16.9079056     10.5321827
    846    845      5      0.0000000     25.2976913     18.6822243     10.7913513
    847    846      2      0.0000000     10.4719114     14.9126348     10.4455042
    848    847      1      0.0000000      8.3247118     12.7996454      8.4110241
    849    848      5      0.0000000     10.7604513     14.7745152      8.5227442
    850    849      5      0.0000000     10.3184309     12.5854359     10.4075727
    851    850      5      0.0000000      8.4195251     15.0855646     10.2074833
    852    851      2      0.0000000      6.2203488     14.8213882     10.5045385
    853    852      1      0.0000000      4.2650065     12.7129402      8.4332895
    854    853      5      0.0000000      6.2505703     14.4838505      8.3146114
    855    854      5      0.0000000      6.2809472     12.7662811     10.5695229
    856    855      5      0.0000000      4.2582574     14.8469019     10.2808123
    857    856      2      0.0000000      2.1815393     14.7348661     10.4330034
    858    857      1      0.0000000      0.1992023     12.6647272      8.2999449
    859    858      5      0.0000000      2.2555420     14.7175083      8.3659372
    860    859      5      0.0000000      2.0150323     12.6331768     10.4882030
    861    860      5      0.0000000      0.0720434     14.7101974     10.4090900
    862    861      2      0.0000000     10.6011324     23.2213593      6.3057270
    863    862      1      0.0000000      8.3574591     21.2315311      4.2630239
    864    863      5      0.0000000     10.5075369     22.8271046      4.1944232
    865    864      5      0.0000000     10.7337875     21.1680164      6.6744809
    866    865      5      0.0000000      8.5360880     23.4900208      6.3150964
    867    866      2      0.0000000      6.3874731     23.2835846      6.4677210
    868    867      1      0.0000000      4.0643697     20.8024578      3.9695585
    869    868      5      0.0000000      6.1936750     22.8403912      4.2146935
    870    869      5      0.0000000      6.7718630     21.3552513      6.6527886
    871    870      5      0.0000000      4.3301449     23.0714893      6.4821167
    872    871      2      0.0000000      2.1032228     23.0978775      6.4184294
    873    872      1      0.0000000      0.0819014     20.9592018      4.1978583
    874    873      5      0.0000000      2.0211637     23.0837173      4.3800106
    875    874      5      0.0000000      2.1240380     20.9016552      6.2927232
    876    875      5      0.0000000      0.0187548     23.0900059      6.5794301
    877    876      2      0.0000000     10.5922394     18.9488716      6.3936305
    878    877      1      0.0000000      8.4155979     17.0055523      4.2341042
    879    878      5      0.0000000     10.4072199     19.2246914      4.1941643
    880    879      5      0.0000000     10.4675922     16.8876114      6.4745245
    881    880      5      0.0000000      8.5216007     18.8723640      6.2364364
    882    881      2      0.0000000      6.3420091     18.9213428      6.3301654
    883    882      1      0.0000000      4.2029781     16.6892509      3.9148440
    884    883      5      0.0000000      6.3631191     18.7962513      4.2814822
    885    884      5      0.0000000      6.4933767     16.7966118      6.2641163
    886    885      5      0.0000000      4.1196156     19.0020790      6.3040156
    887    886      2      0.0000000      2.0767710     18.8291149      6.3213210
    888    887      1      0.0000000      0.0051534     17.0204163      4.2145576
    889    888      5      0.0000000      2.0877724     18.8096447      4.0977345
    890    889      5      0.0000000      1.9897939     16.8878994      6.3618331
    891    890      5      0.0000000     25.1547699     18.9844418      6.1071301
    892    891      2      0.0000000     10.6098871     14.5758352      6.4920416
    893    892      1      0.0000000      8.4852142     12.5891733      4.2363887
    894    893      5      0.0000000     10.6118031     14.8220253      4.4127450
    895    894      5      0.0000000     10.4487352     12.5767174      6.4880033
    896    895      5      0.0000000      8.5067949     14.5269270      6.5773730
    897    896      2      0.0000000      6.4781671     14.7277040      6.3546457
    898    897      1      0.0000000      4.2261319     12.2952785      4.0616035
    899    898      5      0.0000000      6.4998035     14.6852894      4.1981187
    900    899      5      0.0000000      6.5542202     12.6218119      5.9833913
    901    900      5      0.0000000      4.2782488     14.7459850      6.1489248
    902    901      2      0.0000000      2.1988635     14.5980425      6.0787282
    903    902      1      0.0000000     24.9832821     12.5069399      4.2374763
    904    903      5      0.0000000      2.0749996     14.7565403      4.1107297
    905    904      5      0.0000000      2.2848623     12.5306101      6.1741190
    906    905      5      0.0000000      0.0846583     14.4301910      5.9236078
    907    906      2      0.0000000     10.4734468     23.2632809      2.0561309
    908    907      1      0.0000000      8.0987511     20.9971905      0.0947488
    909    908      5      0.0000000     10.5213223     23.2750015     25.2423687
    910    909      5      0.0000000     10.3173771     21.1020622      1.8437848
    911    910      5      0.0000000      8.5458050     23.1179123      1.9934794
    912    911      2      0.0000000      6.2428932     23.0165119      2.1320858
    913    912      1      0.0000000      4.2110085     20.7738094     24.9926243
    914    913      5      0.0000000      6.3331189     22.9850674     25.2791386
    915    914      5      0.0000000      6.2008095     21.0530930      2.1814094
    916    915      5      0.0000000      4.2327838     23.2493553      2.1837549
    917    916      2      0.0000000      2.1556759     23.2050457      2.1333320
    918    917      1      0.0000000     25.3150234     21.0161057     25.2773724
    919    918      5      0.0000000      2.2132699     23.0823574     25.2863026
    920    919      5      0.0000000      2.2704864     20.8346348      2.0086989
    921    920      5      0.0000000      0.0683722     23.0849724      2.1427779
    922    921      2      0.0000000     10.5894785     19.0486202      2.0777888
    923    922      1      0.0000000      8.5174265     16.6799068      0.1988613
    924    923      5      0.0000000     10.7599993     18.9437695     25.2845039
    925    924      5      0.0000000     10.5934544     16.7857990      2.2737947
    926    925      5      0.0000000      8.4692268     18.7748947      1.9732333
    927    926      2      0.0000000      6.3285251     18.7505741      2.0903893
    928    927      1      0.0000000      4.1789455     16.8924618     25.1782551
    929    928      5      0.0000000      6.3308640     18.8121624      0.0070362
    930    929      5      0.0000000      6.1377845     16.8231697      2.0938973
    931    930      5      0.0000000      4.2450624     18.8136482      2.1584628
    932    931      2      0.0000000      2.1906111     18.8786888      2.0532613
    933    932      1      0.0000000     25.1734257     16.7218037     25.1140957
    934    933      5      0.0000000      1.9656224     18.8081112      0.0287362
    935    934      5      0.0000000      2.0625641     16.7046661      2.2573860
    936    935      5      0.0000000     25.2591324     19.0977364      2.1687365
    937    936      2      0.0000000     10.5139952     14.6891937      2.3022017
    938    937      1      0.0000000      8.3822441     12.5789566      0.1973187
    939    938      5      0.0000000     10.4509449     14.6087236      0.1130357
    940    939      5      0.0000000     10.5381165     12.7340851      2.1452854
    941    940      5      0.0000000      8.4863462     14.7590179      2.3538334
    942    941      2      0.0000000      6.3308840     14.6729174      2.2215443
    943    942      1      0.0000000      4.3110938     12.8543282     25.3088932
    944    943      5      0.0000000      6.7891054     14.7298613      0.1131432
    945    944      5      0.0000000      6.2398291     12.4805107      1.8321658
    946    945      5      0.0000000      4.2129984     14.6527405      1.9535245
    947    946      2      0.0000000     14.7973099      2.0213838      2.0937872
    948    947      1      0.0000000     12.6152735     25.3167744      0.0168634
    949    948      5      0.0000000     14.5894499      2.0419734     25.2655621
    950    949      5      0.0000000     14.9062290     25.1980247      2.2464719
    951    950      5      0.0000000     12.6165915      1.9144020      2.2210188
    952    951      2      0.0000000     23.2080364     10.4021120     10.4933805
    953    952      1      0.0000000     20.9284325      8.3188229      8.5516214
    954    953      5      0.0000000     23.2427101     10.5206041      8.4281578
    955    954      5      0.0000000     23.2561073      8.1859608     10.6189327
    956    955      5      0.0000000     21.1013870     10.1868887     10.5881567
    957    956      2      0.0000000     19.0584316     10.3346062     10.6527987
    958    957      1      0.0000000     17.0017185      8.4746265      8.3963499
    959    958      5      0.0000000     18.9768887     10.3657722      8.4205303
    960    959      5      0.0000000     18.9810562      8.2123194     10.4936476
    961    960      5      0.0000000     17.0539951     10.2746944     10.5129728
    962    961      2      0.0000000     14.9284115     10.4013138     10.6465702
    963    962      1      0.0000000     12.8092480      8.2266626      8.5364990
    964    963      5      0.0000000     14.8363590     10.6328068      8.5891953
    965    964      5      0.0000000     14.7950754      8.3954639     10.5822239
    966    965      5      0.0000000     12.5940008     10.6268806     10.5859394
    967    966      2      0.0000000     23.1090794      6.2205472     10.5265722
    968    967      1      0.0000000     20.9980488      4.2171197      8.5206499
    969    968      5      0.0000000     23.0117092      6.2011309      8.4542284
    970    969      5      0.0000000     23.0898170      4.1563587     10.5917091
    971    970      5      0.0000000     21.1293449      6.1336455     10.5727835
    972    971      2      0.0000000     19.0341377      6.1590586     10.6490669
    973    972      1      0.0000000     16.9619579      4.1246142      8.3751707
    974    973      5      0.0000000     19.1359425      6.2000551      8.3593187
    975    974      5      0.0000000     19.0584335      4.1493049     10.8956413
    976    975      5      0.0000000     16.9493237      6.2132335     10.6016521
    977    976      2      0.0000000     14.8468285      6.2666116     10.5752134
    978    977      1      0.0000000     12.7721376      4.0651698      8.4224930
    979    978      5      0.0000000     14.8891344      6.4302964      8.3533916
    980    979      5      0.0000000     14.9293842      4.3044028     10.2488222
    981    980      5      0.0000000     12.8025036      6.2918997     10.6865225
    982    981      2      0.0000000     23.1747665      2.0821202     10.4572182
    983    982      1      0.0000000     21.0518188     25.2207241      8.6444693
    984    983      5      0.0000000     23.0878372      1.9997319      8.3063793
    985    984      5      0.0000000     23.2178707      0.0317230     10.5118084
    986    985      5      0.0000000     21.1831455      2.0047488     10.7701015
    987    986      2      0.0000000     18.9793453      1.9975283     10.7063055
    988    987      1      0.0000000     16.9758663     25.2876740      8.4280396
    989    988      5      0.0000000     19.0647678      2.2577956      8.5211439
    990    989      5      0.0000000     19.0330143     25.1877594     10.6024008
    991    990      5      0.0000000     16.9225101      1.9766630     10.5647125
    992    991      2      0.0000000     14.7965937      2.2042892     10.4848843
    993    992      1      0.0000000     12.5993528      0.1006695      8.4258871
    994    993      5      0.0000000     14.8242826      2.0772841      8.3403597
    995    994      5      0.0000000     14.6169586      0.1090330     10.6748943
    996    995      5      0.0000000     12.6902637      2.3217745     10.5689068
    997    996      2      0.0000000     23.0283985     10.5003729      6.3069649
    998    997      1      0.0000000     21.2239323      8.4779491      4.1388168
    999    998      5      0.0000000     23.0748596     10.7708101      4.2296901
   1000    999      5      0.0000000     23.3302460      8.4268036      6.2159777
   1001   1000      5      0.0000000     20.9785080     10.4972906      6.1917276
   1002   1001      2      0.0000000     18.8895626     10.4045639      6.3606133
   1003   1002      1      0.0000000     16.9189415      8.3760672      4.3044977
   1004   1003      5      0.0000000     18.8469372     10.5139961      3.9832501
   1005   1004      5      0.0000000     19.0250092      8.3529644      6.1376963
   1006   1005      5      0.0000000     16.8517628     10.5709362      6.5433435
   1007   1006      2      0.0000000     14.9463167     10.6121254      6.2457771
   1008   1007      1      0.0000000     12.7972393      8.4179268      4.2739429
   1009   1008      5      0.0000000     15.1775122     10.3022146      4.0918188
   1010   1009      5      0.0000000     14.9329863      8.5265484      6.2901311
   1011   1010      5      0.0000000     12.9040165     10.5765648      6.2562118
   1012   1011      2      0.0000000     23.2277584      6.2258143      6.2533388
   1013   1012      1      0.0000000     21.3484287      4.1180320      4.3482485
   1014   1013      5      0.0000000     23.2565823      6.3042130      4.1111174
   1015   1014      5      0.0000000     23.2726879      4.1049423      6.1398492
   1016   1015      5      0.0000000     21.1973286      6.3888721      6.2526479
   1017   1016      2      0.0000000     19.1569881      6.3442426      6.1470928
   1018   1017      1      0.0000000     16.9560165      4.1540623      4.3730330
   1019   1018      5      0.0000000     19.2791348      6.4363608      4.1322293
   1020   1019      5      0.0000000     19.2050877      4.2747159      6.3787017
   1021   1020      5      0.0000000     17.0199890      6.2752585      6.3016753
   1022   1021      2      0.0000000     14.9110956      6.3581786      6.3485866
   1023   1022      1      0.0000000     12.7717953      4.1879654      4.2311459
   1024   1023      5      0.0000000     14.8688793      6.4232249      4.2323565
   1025   1024      5      0.0000000     14.8124857      4.1867332      6.4350886
   1026   1025      5      0.0000000     12.7638855      6.2884917      6.3666511
   1027   1026      2      0.0000000     23.1102161      1.9432372      6.3115678
   1028   1027      1      0.0000000     20.8830719     25.1868954      4.1423507
   1029   1028      5      0.0000000     23.3380356      2.1137021      4.2017398
   1030   1029      5      0.0000000     23.3171711     25.1161652      6.3438749
   1031   1030      5      0.0000000     21.0054283      2.0477531      6.2997961
   1032   1031      2      0.0000000     18.9783592      2.1604280      6.3547745
   1033   1032      1      0.0000000     16.7926865     25.1793690      4.0653038
   1034   1033      5      0.0000000     18.7091770      2.1174388      4.1345263
   1035   1034      5      0.0000000     18.9405251     25.1762619      6.3113194
   1036   1035      5      0.0000000     16.9284592      2.0595081      6.3135281
   1037   1036      2      0.0000000     14.9378376      2.0504136      6.2324829
   1038   1037      1      0.0000000     12.6760559     25.2751389      4.3115635
   1039   1038      5      0.0000000     14.9262781      2.2137437      4.1958766
   1040   1039      5      0.0000000     14.9218006     25.3013611      6.0551348
   1041   1040      5      0.0000000     12.7253723      1.8625540      6.2799172
   1042   1041      2      0.0000000     23.1260872     10.6766195      1.9902194
   1043   1042      1      0.0000000     21.1731625      8.2534237     24.9079933
   1044   1043      5      0.0000000     23.1662197     10.6913948     25.1979237
   1045   1044      5      0.0000000     23.1813812      8.5402584      2.1675756
   1046   1045      5      0.0000000     21.0702591     10.5552521      1.8332707
   1047   1046      2      0.0000000     18.9549999     10.5253801      1.8714178
   1048   1047      1      0.0000000     16.9888687      8.3718109     25.2341118
   1049   1048      5      0.0000000     19.1340981     10.6614456     25.0935287
   1050   1049      5      0.0000000     19.0516396      8.2955790      1.8104141
   1051   1050      5      0.0000000     16.8938370     10.5384712      1.5622265
   1052   1051      2      0.0000000     14.9675026     10.4988976      1.9798176
   1053   1052      1      0.0000000     12.9077721      8.5010290     25.2813606
   1054   1053      5      0.0000000     14.6052494     10.5512552      0.0022275
   1055   1054      5      0.0000000     14.7707434      8.3494740      2.0885630
   1056   1055      5      0.0000000     12.7108307     10.7462740      2.1985669
   1057   1056      2      0.0000000     23.2105122      6.2682042      2.1417787
   1058   1057      1      0.0000000     21.1611328      4.0719409      0.0080635
   1059   1058      5      0.0000000     23.2280865      6.2685375     25.2769814
   1060   1059      5      0.0000000     23.1487122      4.0931158      2.1399066
   1061   1060      5      0.0000000     21.2303581      6.0434995      2.0940459
   1062   1061      2      0.0000000     19.1338539      6.2216072      2.0804532
   1063   1062      1      0.0000000     17.0705948      4.0391712      0.2744620
   1064   1063      5      0.0000000     19.2429028      6.1899357     25.3100986
   1065   1064      5      0.0000000     19.0145073      4.0616288      2.4022641
   1066   1065      5      0.0000000     16.8750935      6.0202265      2.0441353
   1067   1066      2      0.0000000     14.7326717      6.3228612      2.1530318
   1068   1067      1      0.0000000     12.8287029      4.3633871      0.1565184
   1069   1068      5      0.0000000     14.8445692      6.4325724      0.0160570
   1070   1069      5      0.0000000     14.7914448      4.2439365      2.0298278
   1071   1070      5      0.0000000     12.7116766      6.3562369      2.3764820
   1072   1071      2      0.0000000     23.2337246      1.9717848      2.0954976
   1073   1072      1      0.0000000     21.1659660     24.9164085     25.2105751
   1074   1073      5      0.0000000     23.2224331      2.2938161     25.2404613
   1075   1074      5      0.0000000     23.3045464     25.1700344      2.0963457
   1076   1075      5      0.0000000     21.1709747      1.7906114      2.3097847
   1077   1076      2      0.0000000     19.0368729      1.9872197      2.1470656
   1078   1077      1      0.0000000     16.8339481     25.0874996     25.0249062
   1079   1078      5      0.0000000     19.0097408      2.1687069     25.3142662
   1080   1079      5      0.0000000     18.9969273     25.2575455      2.2075126
   1081   1080      5      0.0000000     16.8536758      2.0651677      1.8999209

 Bonds

       1       1       1      13
