LAMMPS description

    1081          atoms
       1          bonds
       0         angles
       0      dihedrals
       0      impropers

       7     atom types
       1     bond types
       0    angle types
       0 dihedral types
       0 improper types


  0.0000000      25.319000     xlo xhi
  0.0000000      25.319000     ylo yhi
  0.0000000      25.319000     zlo zhi

 Atoms

      1      1      7      0.0000000      7.5872130      9.2792645     10.4012423
      2      1      4      0.0000000      6.4981112      8.6677570     10.4640503
      3      2      5      0.0000000      8.3220558      6.2579336     10.6040516
      4      3      2      0.0000000      2.0009985      1.9884698      2.0615239
      5      4      1      0.0000000     25.2827034     25.3096008      0.0137874
      6      5      5      0.0000000      1.9721640      1.8768092     25.2716408
      7      6      5      0.0000000      2.0875175     25.1661892      1.8972582
      8      7      5      0.0000000     25.2872105      1.8218967      2.0548980
      9      8      2      0.0000000     10.4712610     10.3991060     10.6422396
     10      9      1      0.0000000      8.5626154      8.4240608      8.4290323
     11     10      5      0.0000000     10.6537962     10.4674988      8.4651680
     12     11      5      0.0000000     10.3803539      8.3367405     10.6397305
     13     12      5      0.0000000      8.2274008     10.5206642     10.4357491
     14     13      2      0.0000000      6.2194724     10.6852674     10.4499254
     15     14      1      0.0000000      4.0097866      8.4857807      8.2454920
     16     15      5      0.0000000      6.2425795     10.4599257      8.3219900
     17     16      5      0.0000000      4.1515450     10.6321182     10.4788561
     18     17      2      0.0000000      2.0538969     10.6061764     10.5068502
     19     18      1      0.0000000      0.1963765      8.1802225      8.1634703
     20     19      5      0.0000000      1.9557893     10.4305458      8.3041487
     21     20      5      0.0000000      2.0427990      8.5521202     10.4483671
     22     21      5      0.0000000     25.2680969     10.5632524     10.6580334
     23     22      2      0.0000000     10.5874643      6.3083258     10.6170664
     24     23      1      0.0000000      8.7312069      4.2925701      8.4448910
     25     24      5      0.0000000     10.6583958      6.5516243      8.5570202
     26     25      5      0.0000000     10.4748650      4.2917523     10.4607897
     27     26      2      0.0000000      6.2679534      6.2299514     10.3708839
     28     27      1      0.0000000      4.1986985      4.1970720      8.2479115
     29     28      5      0.0000000      6.2693172      6.3796225      8.3464270
     30     29      5      0.0000000      6.1758704      4.1991925     10.2196350
     31     30      5      0.0000000      4.2411385      6.5270381     10.3617268
     32     31      2      0.0000000      2.1549041      6.3177838     10.4868555
     33     32      1      0.0000000      0.0074185      4.0786996      8.3505125
     34     33      5      0.0000000      2.0669506      6.3579021      8.3107252
     35     34      5      0.0000000      2.1338043      4.1610632     10.5307522
     36     35      5      0.0000000      0.0943945      6.2042117     10.4111547
     37     36      2      0.0000000     10.5577822      2.1990497     10.5199184
     38     37      1      0.0000000      8.7033844     25.1214485      8.2540522
     39     38      5      0.0000000     10.6914673      2.0431647      8.4840574
     40     39      5      0.0000000     10.4905825     25.2885151     10.5372009
     41     40      5      0.0000000      8.4107513      2.1412294     10.7750845
     42     41      2      0.0000000      6.3839436      2.1109030     10.5616798
     43     42      1      0.0000000      4.3480825     25.2878094      8.3926582
     44     43      5      0.0000000      6.5726233      2.0377827      8.3356628
     45     44      5      0.0000000      6.3230519     25.2893524     10.7560368
     46     45      5      0.0000000      4.2644415      2.1049936     10.5282354
     47     46      2      0.0000000      2.1409218      2.1276670     10.4970903
     48     47      1      0.0000000     25.2515106     25.2051563      8.4599085
     49     48      5      0.0000000      2.0963573      2.3181281      8.2580357
     50     49      5      0.0000000      2.2964239      0.0149923     10.4563026
     51     50      5      0.0000000      0.0470360      1.9440980     10.3689737
     52     51      2      0.0000000     10.7917318     10.4433241      6.4221277
     53     52      1      0.0000000      8.6728554      8.3152418      4.2829704
     54     53      5      0.0000000     10.7226486     10.6484032      4.3069186
     55     54      5      0.0000000     10.9624567      8.3956528      6.3634205
     56     55      5      0.0000000      8.5701208     10.2583923      6.3412108
     57     56      2      0.0000000      6.5405354     10.4293299      6.2661281
     58     57      1      0.0000000      4.2077475      8.4558716      4.0086751
     59     58      5      0.0000000      6.3209124     10.4144163      4.2092934
     60     59      5      0.0000000      6.4204745      8.3566580      6.2470365
     61     60      5      0.0000000      4.1888881     10.5300474      6.3542356
     62     61      2      0.0000000      2.1056597     10.4835577      6.2888827
     63     62      1      0.0000000      0.0919522      8.5555496      4.0397835
     64     63      5      0.0000000      2.1163604     10.4023390      4.1401734
     65     64      5      0.0000000      2.0800958      8.2813835      6.1482053
     66     65      5      0.0000000     25.2362556     10.4386930      6.2047076
     67     66      2      0.0000000     10.7272596      6.3421621      6.3988042
     68     67      1      0.0000000      8.4448729      4.2820554      4.1326413
     69     68      5      0.0000000     10.6617489      6.3215065      4.3417592
     70     69      5      0.0000000     10.7559958      4.1083498      6.4912553
     71     70      5      0.0000000      8.6341143      6.4005556      6.4489222
     72     71      2      0.0000000      6.2493434      6.3374648      6.2227397
     73     72      1      0.0000000      4.1749539      4.1488247      4.1986079
     74     73      5      0.0000000      6.1219535      6.3248739      4.1429243
     75     74      5      0.0000000      6.5413232      4.2615762      6.1769838
     76     75      2      0.0000000      1.9603549      6.1692567      6.1477308
     77     76      1      0.0000000     25.1548862      4.0330186      4.2004018
     78     77      5      0.0000000      2.1094031      6.0657201      4.0817990
     79     78      5      0.0000000      2.0897074      4.0742850      6.1371040
     80     79      5      0.0000000     25.2674026      6.1757631      6.3511786
     81     80      2      0.0000000     10.6290541      2.0121741      6.1877513
     82     81      1      0.0000000      8.4478865     25.2910480      3.9857757
     83     82      5      0.0000000     10.5903883      2.1955986      4.1371589
     84     83      5      0.0000000     10.6597900     25.2860088      6.0858412
     85     84      5      0.0000000      8.5594025      1.9506320      6.2042966
     86     85      2      0.0000000      6.4909420      2.0432436      6.2972836
     87     86      1      0.0000000      4.3986745     24.9797173      4.4570398
     88     87      5      0.0000000      6.3104606      2.0127723      4.1246328
     89     88      5      0.0000000      6.4701047     -0.0175542      6.2563763
     90     89      5      0.0000000      4.2960963      1.8759055      6.2992787
     91     90      2      0.0000000      2.0652766      1.9702822      6.2076974
     92     91      1      0.0000000      0.0672810     25.0195656      4.1490126
     93     92      5      0.0000000      2.1226876      1.9186281      4.1331725
     94     93      5      0.0000000      2.0464680     25.2043762      6.3608155
     95     94      5      0.0000000     25.2509804      1.8297776      6.3310094
     96     95      2      0.0000000     10.6264992     10.5937233      2.2981994
     97     96      1      0.0000000      8.6777811      8.6335869      0.1177732
     98     97      5      0.0000000     10.5846701     10.4472094      0.0912430
     99     98      5      0.0000000     10.6713448      8.3996162      2.2141342
    100     99      5      0.0000000      8.4679394     10.5625629      2.2608011
    101    100      2      0.0000000      6.2961183     10.4983349      2.0776191
    102    101      1      0.0000000      4.3386526      8.2055063     25.2931728
    103    102      5      0.0000000      6.2729616     10.4944153      0.0211105
    104    103      5      0.0000000      6.3202868      8.3167152      1.9401722
    105    104      5      0.0000000      4.1642342     10.5252399      2.0357955
    106    105      2      0.0000000      1.9689457     10.5200129      2.0801692
    107    106      1      0.0000000      0.0761144      8.4382334     25.2974472
    108    107      5      0.0000000      1.7943763     10.4125195     25.2679749
    109    108      5      0.0000000      2.0198643      8.4549570      2.0061677
    110    109      5      0.0000000     25.1575012     10.6774158      2.0949106
    111    110      2      0.0000000     10.6596546      6.3288579      2.1054904
    112    111      1      0.0000000      8.2684917      4.0843005     25.1519547
    113    112      5      0.0000000     10.7976704      6.3940349      0.0582341
    114    113      5      0.0000000     10.5327978      4.1964555      2.0119822
    115    114      5      0.0000000      8.4668179      6.4589772      2.3156168
    116    115      2      0.0000000      6.2100616      6.2330966      1.9767306
    117    116      1      0.0000000      4.3497434      3.9497900     25.2102051
    118    117      5      0.0000000      6.2841682      6.2042737     25.2115192
    119    118      5      0.0000000      6.3031821      4.1956606      1.8852855
    120    119      5      0.0000000      4.1606812      6.2051983      1.9622934
    121    120      2      0.0000000      2.1251845      6.1766272      2.0736966
    122    121      1      0.0000000     25.2191963      4.2058921     25.1437531
    123    122      5      0.0000000      2.0430627      6.1556120     25.2869015
    124    123      5      0.0000000      2.0842743      4.0400157      2.1338441
    125    124      5      0.0000000     25.3019199      6.2964001      2.1649077
    126    125      2      0.0000000     10.5511980      2.0204186      2.0435276
    127    126      1      0.0000000      8.4688606     25.2661972     25.2376194
    128    127      5      0.0000000     10.6778879      1.8410002      0.0058425
    129    128      5      0.0000000     10.5408077     25.2788677      2.3984945
    130    129      5      0.0000000      8.4077187      2.1006670      1.8265058
    131    130      2      0.0000000      6.2138071      1.9750395      1.9984014
    132    131      1      0.0000000      4.0478301      0.0719851      0.0290598
    133    132      5      0.0000000      6.3050418      1.8895882     25.2360058
    134    133      5      0.0000000      6.2738471     25.1945400      2.2811601
    135    134      5      0.0000000      4.2077579      2.0773680      1.9415400
    136    135      5      0.0000000      4.1430240      6.1372118      6.2091765
    137    136      2      0.0000000     14.6860313     14.5726004     14.7703524
    138    137      1      0.0000000     12.6896486     12.5505486     12.5906515
    139    138      5      0.0000000     14.7725687     14.3613720     12.6315670
    140    139      5      0.0000000     14.8792610     12.5138979     14.7274504
    141    140      5      0.0000000     12.5614805     14.4810953     14.8145895
    142    141      2      0.0000000     23.3613453     23.0942173     23.2412930
    143    142      1      0.0000000     21.0710640     21.0467777     20.9174461
    144    143      5      0.0000000     23.3894405     23.2638741     21.0447750
    145    144      5      0.0000000     23.3350925     20.9458008     23.1904602
    146    145      5      0.0000000     21.1656990     22.9231052     23.2201176
    147    146      2      0.0000000     19.0363979     23.0508404     23.2360268
    148    147      1      0.0000000     16.8450909     21.0093498     21.0538712
    149    148      5      0.0000000     19.1913261     23.1119366     21.0723877
    150    149      5      0.0000000     18.7313824     21.0757561     23.2295513
    151    150      5      0.0000000     16.8189259     23.2487106     23.2703686
    152    151      2      0.0000000     14.7537327     23.1203613     23.1378670
    153    152      1      0.0000000     12.4512768     21.2103672     21.2135887
    154    153      5      0.0000000     14.9410992     23.0623894     21.0338917
    155    154      5      0.0000000     14.6231928     21.0705509     23.1046391
    156    155      5      0.0000000     12.5416079     22.9212303     23.1304970
    157    156      2      0.0000000     23.2250443     18.9253883     23.1185551
    158    157      1      0.0000000     21.0990429     16.9390640     21.2663631
    159    158      5      0.0000000     23.3174000     19.0473061     21.0705338
    160    159      5      0.0000000     23.2849598     16.8472824     22.9696064
    161    160      5      0.0000000     20.9935570     18.9942379     23.1493092
    162    161      2      0.0000000     18.8852177     19.0169716     23.1579742
    163    162      1      0.0000000     17.0182381     16.8070717     21.0813637
    164    163      5      0.0000000     18.7861691     19.0982533     20.9490910
    165    164      5      0.0000000     19.0358829     16.9296360     22.9959469
    166    165      5      0.0000000     16.8160591     19.0545235     23.2167950
    167    166      2      0.0000000     14.7622700     19.0858116     23.0280037
    168    167      1      0.0000000     12.4602623     16.8523846     21.0831013
    169    168      5      0.0000000     14.9224110     19.1036301     21.0240250
    170    169      5      0.0000000     14.9286213     16.8751659     23.1011562
    171    170      5      0.0000000     12.6878138     18.9202938     23.0303040
    172    171      2      0.0000000     23.1235332     14.6935587     23.1706886
    173    172      1      0.0000000     20.9552479     12.5976915     21.1657085
    174    173      5      0.0000000     23.2860832     14.6946850     21.1511765
    175    174      5      0.0000000     23.0514107     12.6616783     23.2433662
    176    175      5      0.0000000     21.0354042     14.8912354     23.0641918
    177    176      2      0.0000000     18.9759827     14.8669605     23.1064606
    178    177      1      0.0000000     16.8449745     12.5758381     21.0263805
    179    178      5      0.0000000     18.8843040     14.8955727     21.0476646
    180    179      5      0.0000000     19.0322380     12.7261877     23.0602627
    181    180      5      0.0000000     16.7904434     14.6513243     23.0787849
    182    181      2      0.0000000     14.7707062     14.6087370     23.1102409
    183    182      1      0.0000000     12.5101738     12.3592844     21.3135090
    184    183      5      0.0000000     14.6265707     14.4642296     21.0330486
    185    184      5      0.0000000     14.8442736     12.5770998     23.3166294
    186    185      5      0.0000000     12.6655254     14.7610540     23.2614002
    187    186      2      0.0000000     23.3821106     23.1484146     18.8929348
    188    187      1      0.0000000     20.9873753     21.2885017     16.6702881
    189    188      5      0.0000000     23.3179512     23.0941658     16.7537746
    190    189      5      0.0000000     23.3163471     21.0915451     19.0227814
    191    190      5      0.0000000     21.1601048     23.1464024     18.8183250
    192    191      2      0.0000000     19.0434017     23.0449886     18.9464569
    193    192      1      0.0000000     16.8737450     20.9654751     17.0712872
    194    193      5      0.0000000     18.9011421     23.0334110     16.8752956
    195    194      5      0.0000000     19.1419468     21.0612221     18.8759251
    196    195      5      0.0000000     16.9280300     23.2358837     19.0612278
    197    196      2      0.0000000     14.7672844     23.1766033     18.9179420
    198    197      1      0.0000000     12.8932276     21.1613636     16.8730087
    199    198      5      0.0000000     14.7309971     23.1397629     16.8967972
    200    199      5      0.0000000     14.9058094     20.9647655     18.6921139
    201    200      5      0.0000000     12.6164494     23.0279160     18.9159641
    202    201      2      0.0000000     23.2943611     18.9646854     18.9071560
    203    202      1      0.0000000     21.2225227     16.7621536     17.0657406
    204    203      5      0.0000000     23.3853493     18.9418545     16.8997726
    205    204      5      0.0000000     23.2105083     16.7822952     18.7995110
    206    205      5      0.0000000     21.2011852     18.9856052     19.0214882
    207    206      2      0.0000000     19.1070957     19.0426369     18.8448009
    208    207      1      0.0000000     17.0107841     16.9697666     16.9206238
    209    208      5      0.0000000     18.8301945     19.2290668     16.7485256
    210    209      5      0.0000000     19.1899586     16.9666271     18.8009586
    211    210      5      0.0000000     17.0234909     19.0693398     18.9154720
    212    211      2      0.0000000     14.9712534     18.8923416     19.0431252
    213    212      1      0.0000000     12.4060144     16.9070072     16.8925209
    214    213      5      0.0000000     14.9616871     18.8779984     16.8997517
    215    214      5      0.0000000     15.0817184     16.8641090     19.1724358
    216    215      5      0.0000000     12.6049528     18.7962532     19.0018024
    217    216      2      0.0000000     23.1668415     14.7221060     19.1170044
    218    217      1      0.0000000     20.9538689     12.6696730     16.9474468
    219    218      5      0.0000000     23.2463875     14.7242651     16.9443836
    220    219      5      0.0000000     23.0425034     12.5616989     18.8946857
    221    220      5      0.0000000     21.1356335     14.7544775     19.2067108
    222    221      2      0.0000000     18.8948326     14.8205862     19.0564861
    223    222      1      0.0000000     16.8744507     12.6500626     16.9397354
    224    223      5      0.0000000     18.9111519     14.7487020     16.9521027
    225    224      5      0.0000000     18.9683266     12.7185402     19.1085224
    226    225      5      0.0000000     16.8507023     14.8358164     18.9182510
    227    226      2      0.0000000     14.7969990     14.7187319     18.9819336
    228    227      1      0.0000000     12.5258570     12.3367472     16.8925762
    229    228      5      0.0000000     14.5773096     14.8547020     16.8305225
    230    229      5      0.0000000     14.9838839     12.4932299     18.9809113
    231    230      5      0.0000000     12.6310043     14.7915220     19.0516739
    232    231      2      0.0000000     23.3020935     23.0807915     14.6587353
    233    232      1      0.0000000     21.1577778     20.9405289     12.7413101
    234    233      5      0.0000000     23.2207947     23.2956352     12.5519257
    235    234      5      0.0000000     23.2124405     20.9637814     14.5546207
    236    235      5      0.0000000     21.0591908     22.9849415     14.7506561
    237    236      2      0.0000000     18.9518948     23.1560192     14.7685604
    238    237      1      0.0000000     16.8001213     21.0064220     12.6443815
    239    238      5      0.0000000     18.9807014     23.0856171     12.6513462
    240    239      5      0.0000000     18.8133144     21.0893288     14.6111660
    241    240      5      0.0000000     16.8072643     23.3202705     14.7281294
    242    241      2      0.0000000     14.7241068     23.1525517     14.7540016
    243    242      1      0.0000000     12.7587996     21.0374546     12.7684278
    244    243      5      0.0000000     14.6731634     23.0929165     12.6149130
    245    244      5      0.0000000     14.7482557     20.9856796     14.7222052
    246    245      5      0.0000000     12.6571016     23.0853634     14.6330175
    247    246      2      0.0000000     23.1277866     18.9240360     14.8261566
    248    247      1      0.0000000     21.1630001     16.8945446     12.5660229
    249    248      5      0.0000000     22.9990749     18.7688293     12.6455460
    250    249      5      0.0000000     23.0634613     16.7563725     14.7418261
    251    250      5      0.0000000     21.1400719     18.8822250     15.1084042
    252    251      2      0.0000000     18.8097572     18.9667244     14.7061968
    253    252      1      0.0000000     16.8138123     16.8402271     12.8302183
    254    253      5      0.0000000     19.0660458     19.0328846     12.7179012
    255    254      5      0.0000000     18.9642200     16.8236332     14.7012072
    256    255      5      0.0000000     16.7592010     18.8322449     14.5812922
    257    256      2      0.0000000     14.6665964     18.8530216     14.7687321
    258    257      1      0.0000000     12.6936455     16.7366753     12.4738283
    259    258      5      0.0000000     14.6858225     18.8913670     12.5799227
    260    259      5      0.0000000     14.6268759     16.7233200     14.6317778
    261    260      5      0.0000000     12.6548290     19.0382252     14.8197336
    262    261      2      0.0000000     23.0726337     14.6786346     14.9207926
    263    262      1      0.0000000     21.2780590     12.6046343     12.5469303
    264    263      5      0.0000000     23.2030621     14.6418123     12.5158882
    265    264      5      0.0000000     23.1141891     12.4997683     14.6665201
    266    265      5      0.0000000     21.0716610     14.5725698     15.0399694
    267    266      2      0.0000000     19.0332584     14.7341433     14.8306913
    268    267      1      0.0000000     16.7470016     12.5279808     13.0390253
    269    268      5      0.0000000     19.2258644     14.7072515     12.7297935
    270    269      5      0.0000000     18.9722919     12.6212158     14.7706242
    271    270      5      0.0000000     16.8545570     14.8045511     14.8609447
    272    271      2      0.0000000      2.0982423     14.6638279     14.7372656
    273    272      1      0.0000000     25.1940594     12.6268549     12.4076014
    274    273      5      0.0000000      2.1052079     14.6349134     12.5579834
    275    274      5      0.0000000      2.1399918     12.6015005     14.7039394
    276    275      5      0.0000000     -0.0219310     14.7566442     14.7887850
    277    276      2      0.0000000     10.4256220     23.1247044     23.1225262
    278    277      1      0.0000000      8.2927818     20.9636078     21.1846485
    279    278      5      0.0000000     10.6094389     23.3462009     21.0116062
    280    279      5      0.0000000     10.3601980     21.0350800     23.0389633
    281    280      5      0.0000000      8.3525362     23.2316704     23.0970020
    282    281      2      0.0000000      6.2713323     23.1189537     23.0903721
    283    282      1      0.0000000      4.0843205     21.0101070     21.2571278
    284    283      5      0.0000000      6.2763109     22.8497715     21.0538044
    285    284      5      0.0000000      6.3338380     20.9918041     23.3091164
    286    285      5      0.0000000      4.1945205     23.1470127     23.0169525
    287    286      2      0.0000000      2.1637530     23.2280884     23.2700100
    288    287      1      0.0000000      0.1797624     21.1300354     21.1028156
    289    288      5      0.0000000      2.0094900     23.0537586     21.1305180
    290    289      5      0.0000000      2.2496037     20.9013596     23.1398659
    291    290      5      0.0000000      0.0577530     23.1294689     23.3685322
    292    291      2      0.0000000     10.5130606     18.8846931     23.2555332
    293    292      1      0.0000000      8.4507008     16.8768997     21.2942314
    294    293      5      0.0000000     10.5665283     18.6508408     21.1841621
    295    294      5      0.0000000     10.5192976     16.7549210     23.5275993
    296    295      5      0.0000000      8.4019070     18.9317760     23.1193504
    297    296      2      0.0000000      6.3102312     18.7418690     23.1898403
    298    297      1      0.0000000      4.3097167     16.6138897     21.1109581
    299    298      5      0.0000000      6.1091785     18.7380619     21.1586285
    300    299      5      0.0000000      6.4489269     16.7539139     23.1038132
    301    300      5      0.0000000      4.1638694     18.7807293     23.3403053
    302    301      2      0.0000000      1.9551336     18.8359985     23.2125568
    303    302      1      0.0000000      0.1678161     16.9358864     21.0422306
    304    303      5      0.0000000      1.9176701     18.9362698     21.1054401
    305    304      5      0.0000000      2.0741410     16.7917862     23.1027050
    306    305      5      0.0000000     25.2973976     18.8607388     23.3559399
    307    306      2      0.0000000     10.5294304     14.6006212     23.3605556
    308    307      1      0.0000000      8.5345526     12.7045984     21.2497444
    309    308      5      0.0000000     10.4912653     14.6317310     21.1975689
    310    309      5      0.0000000     10.5533876     12.4930401     23.0751305
    311    310      5      0.0000000      8.4924183     14.6799622     23.1921864
    312    311      2      0.0000000      6.4796281     14.7177401     23.2104568
    313    312      1      0.0000000      4.3450747     12.4449911     21.1833801
    314    313      5      0.0000000      6.3778200     14.5333652     21.1558590
    315    314      5      0.0000000      6.4382696     12.5431662     23.2303295
    316    315      5      0.0000000      4.3744440     14.8741274     23.3594418
    317    316      2      0.0000000      2.1393714     14.7205591     23.2510586
    318    317      1      0.0000000     25.2703571     12.3767653     21.1228561
    319    318      5      0.0000000      2.3128588     14.6877604     21.1363945
    320    319      5      0.0000000      2.3415210     12.6252222     23.2060814
    321    320      5      0.0000000      0.0373900     14.7061186     23.3237305
    322    321      2      0.0000000     10.5641909     23.0131168     18.9125710
    323    322      1      0.0000000      8.5272512     20.9834728     17.0722847
    324    323      5      0.0000000     10.6209707     22.8108883     16.8644276
    325    324      5      0.0000000     10.5097857     21.0022678     19.2528954
    326    325      5      0.0000000      8.4382248     23.0615215     18.9569206
    327    326      2      0.0000000      6.3009763     23.0879765     19.0653706
    328    327      1      0.0000000      4.3188295     20.7333717     16.9612846
    329    328      5      0.0000000      6.2388692     23.0904388     17.0409107
    330    329      5      0.0000000      6.3687763     20.8921013     19.0885086
    331    330      5      0.0000000      4.2351766     23.3141823     19.1912231
    332    331      2      0.0000000      2.2022583     23.2942657     19.0725784
    333    332      1      0.0000000      0.1525267     21.0372410     16.8557453
    334    333      5      0.0000000      2.2759178     23.2031975     16.9319210
    335    334      5      0.0000000      2.1946919     21.1579819     18.9968357
    336    335      5      0.0000000      0.0738522     23.3255863     18.9360733
    337    336      2      0.0000000     10.5151386     18.9700356     19.0644665
    338    337      1      0.0000000      8.4964848     16.8327179     16.7991543
    339    338      5      0.0000000     10.3217163     19.1000252     16.8494816
    340    339      5      0.0000000     10.5062456     16.8099957     18.9582386
    341    340      5      0.0000000      8.3846531     18.8612995     19.1034031
    342    341      2      0.0000000      6.2836652     18.8004818     18.9870911
    343    342      1      0.0000000      4.2281284     16.5364227     17.1421738
    344    343      5      0.0000000      6.3671618     18.7983818     16.9255352
    345    344      5      0.0000000      6.1796165     16.6425495     19.0568161
    346    345      5      0.0000000      4.1950860     18.8769875     19.0231438
    347    346      2      0.0000000      2.1620240     18.8219223     19.0981750
    348    347      1      0.0000000     25.2683582     16.7180672     16.8552628
    349    348      5      0.0000000      2.1024878     18.8400497     16.9338627
    350    349      5      0.0000000      2.2407222     16.6663399     19.0466290
    351    350      5      0.0000000      0.0634872     18.7621498     19.0145912
    352    351      2      0.0000000     10.5649948     14.7150764     19.1117554
    353    352      1      0.0000000      8.4501276     12.6379814     17.0160885
    354    353      5      0.0000000     10.4017401     14.4784069     16.9363918
    355    354      5      0.0000000     10.6104603     12.4303827     19.0304890
    356    355      5      0.0000000      8.4473562     14.7043438     18.9841805
    357    356      2      0.0000000      6.3503065     14.5272884     18.8833199
    358    357      1      0.0000000      4.2873311     12.4261999     16.8318405
    359    358      5      0.0000000      6.3882952     14.8497572     16.8107853
    360    359      5      0.0000000      6.4699621     12.4715939     18.8460503
    361    360      5      0.0000000      4.3111348     14.4137049     18.9297562
    362    361      2      0.0000000      2.1885080     14.4090052     19.1004543
    363    362      1      0.0000000      0.0846249     12.6411018     16.7440968
    364    363      5      0.0000000      2.0998611     14.4370975     16.8636837
    365    364      5      0.0000000      2.2667823     12.4705200     18.9871693
    366    365      5      0.0000000      0.1018482     14.4457712     19.1604500
    367    366      2      0.0000000     10.5628176     23.1744556     14.6870508
    368    367      1      0.0000000      8.5913763     21.0656166     12.6562109
    369    368      5      0.0000000     10.5260811     23.0909882     12.6620903
    370    369      5      0.0000000     10.5211792     21.0185680     14.5501852
    371    370      5      0.0000000      8.3836050     23.0849991     14.8689671
    372    371      2      0.0000000      6.3035650     23.0653992     14.8603888
    373    372      1      0.0000000      4.1771851     20.8022633     12.6944256
    374    373      5      0.0000000      6.4409895     23.1083775     12.7468843
    375    374      5      0.0000000      6.2622333     21.0116596     14.8638210
    376    375      5      0.0000000      4.1780972     23.1174679     14.7817087
    377    376      2      0.0000000      2.0821593     23.1330929     14.7853956
    378    377      1      0.0000000     25.2746811     21.0639820     12.6471386
    379    378      5      0.0000000      2.2688775     23.2414589     12.6161184
    380    379      5      0.0000000      1.8346150     21.0780220     14.8493671
    381    380      5      0.0000000     25.3276634     23.1012611     14.6794291
    382    381      2      0.0000000     10.6037931     18.9647980     14.6492052
    383    382      1      0.0000000      8.1710920     16.8339500     12.8667612
    384    383      5      0.0000000     10.5169115     18.7937908     12.6440334
    385    384      5      0.0000000     10.7437925     16.7971382     14.7699795
    386    385      5      0.0000000      8.3706579     18.9391327     14.5647669
    387    386      2      0.0000000      6.3146877     18.9788475     14.8606472
    388    387      1      0.0000000      4.3753567     16.7259636     12.6599178
    389    388      5      0.0000000      6.1615076     18.9856224     12.7034807
    390    389      5      0.0000000      6.1270213     16.8876820     14.8527794
    391    390      5      0.0000000      4.1083999     19.0394077     14.7979403
    392    391      2      0.0000000      2.0942631     18.7534924     14.7899284
    393    392      1      0.0000000     25.0358028     16.6755543     12.9840488
    394    393      5      0.0000000      2.1944041     18.9103966     12.7840300
    395    394      5      0.0000000      2.1677012     16.6459503     14.8298225
    396    395      5      0.0000000     25.2786331     18.7269802     14.8321362
    397    396      2      0.0000000     10.5030270     14.6339054     14.7509747
    398    397      1      0.0000000      8.6961641     12.7155848     12.6532354
    399    398      5      0.0000000     10.3403282     14.7180452     12.6193695
    400    399      5      0.0000000     10.5516577     12.5664778     14.6454678
    401    400      5      0.0000000      8.4470949     14.8321619     14.7523241
    402    401      2      0.0000000      6.3556714     14.7369947     14.6943579
    403    402      1      0.0000000      4.1592641     12.4200954     12.7100954
    404    403      5      0.0000000      6.4058046     14.9630594     12.5825281
    405    404      5      0.0000000      6.4124398     12.6475697     14.6723566
    406    405      5      0.0000000      4.3187561     14.4907818     14.5388784
    407    406      2      0.0000000     14.6898432      2.0663381     14.8326111
    408    407      1      0.0000000     12.8693800      0.0459770     12.6906157
    409    408      5      0.0000000     14.8528233      2.0756326     12.7379913
    410    409      5      0.0000000     14.5819035     25.2167892     14.9196949
    411    410      5      0.0000000     12.6308146      2.0589228     14.7786150
    412    411      2      0.0000000     23.2461414     10.6071920     23.1823330
    413    412      1      0.0000000     21.2026539      8.5434875     20.9922028
    414    413      5      0.0000000     23.2511940     10.4693794     21.0691986
    415    414      5      0.0000000     23.3910522      8.3734007     23.2525520
    416    415      5      0.0000000     21.1198292     10.5728197     22.9904022
    417    416      2      0.0000000     18.9836483     10.5775185     23.1941586
    418    417      1      0.0000000     16.9138088      8.1176262     21.4128551
    419    418      5      0.0000000     18.8463898     10.5195026     21.1041794
    420    419      5      0.0000000     19.0058079      8.3612528     23.3241920
    421    420      5      0.0000000     16.8619308     10.5557966     23.2369461
    422    421      2      0.0000000     14.7217703     10.5235281     23.2669373
    423    422      1      0.0000000     12.8244944      8.4247293     21.0369873
    424    423      5      0.0000000     14.7488546     10.2854776     21.1994038
    425    424      5      0.0000000     14.7496853      8.4003525     23.2214012
    426    425      5      0.0000000     12.6623182     10.5270176     23.2971153
    427    426      2      0.0000000     23.3204327      6.1686220     23.1276722
    428    427      1      0.0000000     21.2800732      4.3147302     20.9293537
    429    428      5      0.0000000     23.3390827      6.2082243     20.9234543
    430    429      5      0.0000000     23.2235088      4.0916595     23.1090450
    431    430      5      0.0000000     21.2439346      6.2726140     23.0337753
    432    431      2      0.0000000     19.0782547      6.2439117     23.2834530
    433    432      1      0.0000000     17.0082150      4.2418923     21.0770531
    434    433      5      0.0000000     19.0017586      6.5661778     21.0530071
    435    434      5      0.0000000     19.0461407      4.2297883     23.0315189
    436    435      5      0.0000000     16.9637985      6.3946753     23.3621330
    437    436      2      0.0000000     14.8437090      6.2216110     23.3848419
    438    437      1      0.0000000     12.4973564      4.2362275     21.0930519
    439    438      5      0.0000000     15.1336718      6.0974679     21.1882401
    440    439      5      0.0000000     14.7677917      4.2089949     23.2731266
    441    440      5      0.0000000     12.7696524      6.2271795     23.3787994
    442    441      2      0.0000000     23.2194824      2.0184765     23.0865898
    443    442      1      0.0000000     21.0098476     24.9732876     20.9057789
    444    443      5      0.0000000     23.2146626      2.0345328     20.9863300
    445    444      5      0.0000000     23.1780796     25.1831474     23.3020363
    446    445      5      0.0000000     21.0859013      1.9053264     23.1691074
    447    446      2      0.0000000     19.0726547      1.8734537     23.1770649
    448    447      1      0.0000000     16.8758297     25.2382317     21.0445118
    449    448      5      0.0000000     18.9238071      1.8366833     21.0523300
    450    449      5      0.0000000     18.9900360     25.1280861     23.3444443
    451    450      5      0.0000000     16.8509827      2.1722155     23.1833096
    452    451      2      0.0000000     14.7620516      2.1672485     23.1669350
    453    452      1      0.0000000     12.5242653     25.2341690     21.1221046
    454    453      5      0.0000000     14.8201075      1.9656974     21.0944881
    455    454      5      0.0000000     14.6299562     25.2130241     23.1089668
    456    455      5      0.0000000     12.6452723      2.2020686     23.1746216
    457    456      2      0.0000000     23.2273388     10.4475698     18.8787479
    458    457      1      0.0000000     21.0964928      8.5308533     16.8809433
    459    458      5      0.0000000     23.3669147     10.4853640     16.8664894
    460    459      5      0.0000000     23.1917667      8.3105307     18.8563690
    461    460      5      0.0000000     21.0781250     10.3730516     19.0966339
    462    461      2      0.0000000     18.9695034     10.4775610     19.0456543
    463    462      1      0.0000000     16.9515095      8.5468454     17.0653992
    464    463      5      0.0000000     19.1543598     10.6042871     16.9788322
    465    464      5      0.0000000     19.0501251      8.3719969     18.7942581
    466    465      5      0.0000000     16.9637108     10.4608984     18.9661198
    467    466      2      0.0000000     14.9414196     10.3850632     19.1252346
    468    467      1      0.0000000     12.6899490      8.3960247     16.7734985
    469    468      5      0.0000000     15.0659542     10.3813190     16.8415833
    470    469      5      0.0000000     14.6908331      8.3806581     18.8952236
    471    470      5      0.0000000     12.7501383     10.5440378     19.1036816
    472    471      2      0.0000000     23.2439880      6.2968779     18.8549004
    473    472      1      0.0000000     21.1088696      4.2757492     16.9967918
    474    473      5      0.0000000     23.2639065      6.2748694     16.7156334
    475    474      5      0.0000000     23.3067532      4.2658272     18.8631954
    476    475      5      0.0000000     21.0523510      6.1902614     19.0526485
    477    476      2      0.0000000     18.9848385      6.3532376     18.9891224
    478    477      1      0.0000000     16.9575577      4.0850558     16.8307209
    479    478      5      0.0000000     19.1533833      6.1883049     16.8926601
    480    479      5      0.0000000     18.9695835      4.1686745     19.0136452
    481    480      5      0.0000000     16.9000874      6.3326368     18.9046326
    482    481      2      0.0000000     14.8419733      6.2152205     18.8933811
    483    482      1      0.0000000     12.8214579      4.3138041     16.9178638
    484    483      5      0.0000000     14.6006632      6.1581144     16.8597507
    485    484      5      0.0000000     14.9340219      4.1488280     18.9426117
    486    485      5      0.0000000     12.7607002      6.1545486     19.0710106
    487    486      2      0.0000000     23.2977543      2.1402349     18.9446087
    488    487      1      0.0000000     21.0952606      0.0969570     16.9148731
    489    488      5      0.0000000     23.0150566      2.3073566     16.8660393
    490    489      5      0.0000000     23.3291035     25.2855816     18.8023109
    491    490      5      0.0000000     21.0898628      2.1376052     18.9548092
    492    491      2      0.0000000     18.9738598      2.0888028     18.9791641
    493    492      1      0.0000000     16.8687267     25.2100811     16.7560940
    494    493      5      0.0000000     18.6807594      2.2134225     16.8975182
    495    494      5      0.0000000     19.1526089     25.2501011     18.8599892
    496    495      5      0.0000000     16.8247890      1.7061150     18.9631252
    497    496      2      0.0000000     14.8112144      1.9342176     19.0237923
    498    497      1      0.0000000     12.5417862     25.2710762     17.0880928
    499    498      5      0.0000000     14.6706944      2.0514305     16.9272957
    500    499      5      0.0000000     14.5982666     25.1764946     19.0028591
    501    500      5      0.0000000     12.6151028      1.8982517     19.0515785
    502    501      2      0.0000000     23.1968307     10.3768024     14.6816578
    503    502      1      0.0000000     21.2523365      8.2211990     12.5409889
    504    503      5      0.0000000     23.1901054     10.3930206     12.6209173
    505    504      5      0.0000000     23.4605026      8.3776169     14.7331619
    506    505      5      0.0000000     21.1194801     10.5079918     14.7525549
    507    506      2      0.0000000     19.0729084     10.5438633     14.7840986
    508    507      1      0.0000000     17.1308746      8.3854685     12.7201319
    509    508      5      0.0000000     19.0553875     10.3190155     12.6902733
    510    509      5      0.0000000     18.9465561      8.4279137     14.9579210
    511    510      5      0.0000000     17.0114174     10.5578976     14.7560024
    512    511      2      0.0000000     14.9493341     10.3673553     14.6934929
    513    512      1      0.0000000     12.7822590      8.3448200     12.7899246
    514    513      5      0.0000000     15.0525217     10.3438473     12.6817789
    515    514      5      0.0000000     14.8148861      8.3522472     14.6906080
    516    515      5      0.0000000     12.7511806     10.3716898     14.7220135
    517    516      2      0.0000000     23.3228703      6.3361330     14.6569338
    518    517      1      0.0000000     21.2565594      4.0462680     12.5777826
    519    518      5      0.0000000     23.4507465      6.2703691     12.6283722
    520    519      5      0.0000000     23.1798611      4.1306591     14.4682627
    521    520      5      0.0000000     21.1909657      6.6865306     14.6221704
    522    521      2      0.0000000     19.0787888      6.3733168     14.8593416
    523    522      1      0.0000000     16.9703064      4.0211377     12.8342037
    524    523      5      0.0000000     19.0707569      6.4206982     12.7696886
    525    524      5      0.0000000     19.1771889      4.2337523     14.7400112
    526    525      5      0.0000000     16.9254303      6.2933059     15.0169201
    527    526      2      0.0000000     14.8609982      6.3029070     14.7132072
    528    527      1      0.0000000     12.8089933      4.5255508     12.7096109
    529    528      5      0.0000000     14.9745302      6.2829709     12.6377516
    530    529      5      0.0000000     14.7963781      4.2630148     14.7169781
    531    530      5      0.0000000     12.7247639      6.4692335     14.5956383
    532    531      2      0.0000000     23.2362080      2.0017231     14.7949324
    533    532      1      0.0000000     21.0753860     25.1371174     12.4415255
    534    533      5      0.0000000     23.3933392      2.0392499     12.5725002
    535    534      5      0.0000000     23.2488060     25.2201939     14.5913782
    536    535      5      0.0000000     21.1585941      1.9376853     14.8476858
    537    536      2      0.0000000     19.0761509      2.0572951     14.8599577
    538    537      1      0.0000000     16.9329071     24.9461689     12.6598997
    539    538      5      0.0000000     18.9781342      2.0013177     12.7795696
    540    539      5      0.0000000     19.1817265     25.2825871     14.8873835
    541    540      5      0.0000000     16.7839260      2.0721691     14.7865753
    542    541      2      0.0000000      2.0987275      1.9791579     14.8025255
    543    542      1      0.0000000     25.2909927      0.1030307     12.5541477
    544    543      5      0.0000000      2.1533506      1.9212315     12.5950413
    545    544      5      0.0000000      2.1740968     25.2783089     15.0268364
    546    545      5      0.0000000      0.0294829      1.8515987     15.0575533
    547    546      2      0.0000000     10.5736141     10.3646555     23.2874203
    548    547      1      0.0000000      8.4917641      8.3304415     21.0272751
    549    548      5      0.0000000     10.4330845     10.3159828     21.0797882
    550    549      5      0.0000000     10.8713083      8.4032450     23.1998711
    551    550      5      0.0000000      8.5279102     10.4938641     23.4962158
    552    551      2      0.0000000      6.3232603     10.3636332     23.2230625
    553    552      1      0.0000000      4.5334353      8.3791170     21.1493416
    554    553      5      0.0000000      6.3360910     10.2975731     21.1086254
    555    554      5      0.0000000      6.3944716      8.3279314     23.3068333
    556    555      5      0.0000000      4.3064461     10.4078016     23.0910835
    557    556      2      0.0000000      2.2386575     10.4905014     23.1847229
    558    557      1      0.0000000     25.2728157      8.3782206     21.0786438
    559    558      5      0.0000000      2.3070076     10.4841928     21.0777950
    560    559      5      0.0000000      2.1668589      8.4484653     23.1721077
    561    560      5      0.0000000     25.3118668     10.6581392     23.1123657
    562    561      2      0.0000000     10.6775599      6.4688950     23.3172626
    563    562      1      0.0000000      8.5195045      4.1117282     21.1310272
    564    563      5      0.0000000     10.5701351      6.2858496     21.0516281
    565    564      5      0.0000000     10.4700775      4.2837834     23.3411789
    566    565      5      0.0000000      8.4750528      6.2372093     23.1940651
    567    566      2      0.0000000      6.3549953      6.1611080     23.1589851
    568    567      1      0.0000000      4.4422193      4.2301049     21.0123634
    569    568      5      0.0000000      6.4742627      6.3592653     21.1543427
    570    569      5      0.0000000      6.2995639      4.0319037     23.1595402
    571    570      5      0.0000000      4.2392554      6.2884736     23.1819954
    572    571      2      0.0000000      2.1575396      6.3017678     23.1349335
    573    572      1      0.0000000      0.1724441      4.4261785     20.7235909
    574    573      5      0.0000000      2.1738498      6.2731643     21.0611763
    575    574      5      0.0000000      2.2138979      4.1944962     23.2309608
    576    575      5      0.0000000      0.0547464      6.1561832     23.0519276
    577    576      2      0.0000000     10.6251802      2.1356552     23.2225876
    578    577      1      0.0000000      8.4702387     25.1380215     20.9410324
    579    578      5      0.0000000     10.5704784      2.0283604     21.0825462
    580    579      5      0.0000000     10.4285240     25.2635498     23.1630440
    581    580      5      0.0000000      8.5244236      2.0838883     23.1978760
    582    581      2      0.0000000      6.4484696      1.9059213     23.1792965
    583    582      1      0.0000000      4.2372799     25.2489738     21.0216866
    584    583      5      0.0000000      6.3802547      2.0249465     21.1182117
    585    584      5      0.0000000      6.3365250     25.1533051     23.0693836
    586    585      5      0.0000000      4.1634555      1.8040512     23.2093811
    587    586      2      0.0000000      2.0412610      2.0381563     23.1401787
    588    587      1      0.0000000     25.2739410      0.1405363     21.1035652
    589    588      5      0.0000000      1.9563715      2.0573413     21.1161327
    590    589      5      0.0000000      2.1411133     25.2359695     23.1125107
    591    590      5      0.0000000     25.2718029      1.8651346     23.1545277
    592    591      2      0.0000000     10.5701914     10.3596306     18.9970207
    593    592      1      0.0000000      8.6139421      8.5482655     16.8110905
    594    593      5      0.0000000     10.5199194     10.4775486     16.7441254
    595    594      5      0.0000000     10.6746225      8.3418121     18.9931965
    596    595      5      0.0000000      8.4736338     10.3825912     18.9727345
    597    596      2      0.0000000      6.4196186     10.4060450     18.9807606
    598    597      1      0.0000000      4.2038889      8.3700066     16.8250866
    599    598      5      0.0000000      6.4572282     10.4955158     16.7609062
    600    599      5      0.0000000      6.5817671      8.3612566     19.1359138
    601    600      5      0.0000000      4.3564439     10.4667158     18.8921528
    602    601      2      0.0000000      2.2573328     10.5122652     18.9048977
    603    602      1      0.0000000      0.1947071      8.1019278     16.8542595
    604    603      5      0.0000000      2.2437339     10.3994436     16.8365498
    605    604      5      0.0000000      2.3197117      8.3427973     18.9498749
    606    605      5      0.0000000      0.0760950     10.5350695     19.0199795
    607    606      2      0.0000000     10.5976791      6.1956744     18.9355545
    608    607      1      0.0000000      8.4305515      4.0786538     16.7821407
    609    608      5      0.0000000     10.6926336      6.2802405     16.7906933
    610    609      5      0.0000000     10.5422592      4.1344104     19.0316334
    611    610      5      0.0000000      8.5451355      6.2196369     18.8089218
    612    611      2      0.0000000      6.4070978      6.3303304     18.9533710
    613    612      1      0.0000000      4.2384267      3.9330823     16.7740040
    614    613      5      0.0000000      6.3043280      6.4225235     16.8908825
    615    614      5      0.0000000      6.4639621      4.1947346     19.0182762
    616    615      5      0.0000000      4.3479161      6.3397336     19.1557312
    617    616      2      0.0000000      2.2959361      6.3360448     19.0287495
    618    617      1      0.0000000      0.1247735      4.0567021     16.8604507
    619    618      5      0.0000000      2.1264467      6.2737265     16.8031235
    620    619      5      0.0000000      2.1345439      4.1970601     19.0970592
    621    620      5      0.0000000      0.1298306      6.3337584     18.8961391
    622    621      2      0.0000000     10.5477810      1.9706712     19.0193157
    623    622      1      0.0000000      8.2584162     25.1321697     17.0006313
    624    623      5      0.0000000     10.4087868      2.0550990     16.9194298
    625    624      5      0.0000000     10.5067787     25.1823616     18.7810516
    626    625      5      0.0000000      8.3735380      1.9828745     18.9262676
    627    626      2      0.0000000      6.3503938      2.0952535     18.9837112
    628    627      1      0.0000000      4.3156796     24.9544315     16.7894897
    629    628      5      0.0000000      6.1586680      1.8210649     16.8705711
    630    629      5      0.0000000      6.3241124     25.2708435     19.0885258
    631    630      5      0.0000000      4.2751994      2.3823290     18.9815273
    632    631      2      0.0000000      2.1725686      2.1403818     18.9083538
    633    632      1      0.0000000      0.0474592     25.1178341     16.9983978
    634    633      5      0.0000000      2.1410294      2.2008431     16.8713531
    635    634      5      0.0000000      2.1708312      0.0842199     18.9788113
    636    635      5      0.0000000      0.0419381      2.1561027     18.8286247
    637    636      2      0.0000000     10.5353317     10.4982271     14.6899014
    638    637      1      0.0000000      8.4549589      8.2960176     12.5830154
    639    638      5      0.0000000     10.4962540     10.4179440     12.6414070
    640    639      5      0.0000000     10.4654579      8.4033260     14.8275547
    641    640      5      0.0000000      8.4416132     10.5444164     14.3526478
    642    641      2      0.0000000      6.3417106     10.4129763     14.5755720
    643    642      1      0.0000000      4.2103367      8.4808226     12.6317348
    644    643      5      0.0000000      6.1968827     10.3844385     12.4915504
    645    644      5      0.0000000      6.4457955      8.3553562     14.6035347
    646    645      5      0.0000000      4.2740593     10.4512186     14.6187782
    647    646      2      0.0000000      2.0194156     10.6068525     14.6211834
    648    647      1      0.0000000      0.1112965      8.4492903     12.7770805
    649    648      5      0.0000000      2.0163498     10.5957193     12.5936689
    650    649      5      0.0000000      2.1571095      8.3568201     14.6090450
    651    650      5      0.0000000      0.0652037     10.4342670     14.7016268
    652    651      2      0.0000000     10.5768337      6.2789555     14.7016001
    653    652      1      0.0000000      8.5044365      4.0613928     12.7837439
    654    653      5      0.0000000     10.6289454      6.1951928     12.6564579
    655    654      5      0.0000000     10.6393089      4.1559062     14.8899670
    656    655      5      0.0000000      8.4841738      6.1442294     14.5850916
    657    656      2      0.0000000      6.3722482      6.2284641     14.5372982
    658    657      1      0.0000000      4.2278118      4.0684190     12.7123852
    659    658      5      0.0000000      6.3162670      6.4819717     12.4355898
    660    659      5      0.0000000      6.4663920      4.1772652     14.6962376
    661    660      5      0.0000000      4.2428904      6.2172117     14.6165447
    662    661      2      0.0000000      2.1736352      6.2549887     14.6654739
    663    662      1      0.0000000     25.1870289      4.2493482     12.4407558
    664    663      5      0.0000000      2.3510945      6.2388024     12.4945269
    665    664      5      0.0000000      2.1160479      4.1429267     14.6993523
    666    665      5      0.0000000      0.1537029      6.1005454     14.6959476
    667    666      2      0.0000000     10.5492687      2.0941055     14.7784481
    668    667      1      0.0000000      8.4542942     25.0002098     12.5544796
    669    668      5      0.0000000     10.6550550      2.2738719     12.5878878
    670    669      5      0.0000000     10.4936409     25.2360001     14.7688475
    671    670      5      0.0000000      8.4413033      2.0635633     14.7353964
    672    671      2      0.0000000      6.3379836      1.9062949     14.6890774
    673    672      1      0.0000000      4.1611776     25.3084812     12.4028845
    674    673      5      0.0000000      6.2202973      2.1551499     12.6338720
    675    674      5      0.0000000      6.4206800     25.1788025     14.7882662
    676    675      5      0.0000000      4.2667761      2.1942697     14.6996222
    677    676      2      0.0000000     14.7298841     14.6191587      2.1044025
    678    677      1      0.0000000     12.7721052     12.6439219      0.2985682
    679    678      5      0.0000000     14.6381912     14.7029667      0.0309962
    680    679      5      0.0000000     14.8333206     12.5334005      2.2082160
    681    680      5      0.0000000     12.6133499     14.5445385      2.2022541
    682    681      2      0.0000000     23.3383350     23.1901150     10.5309820
    683    682      1      0.0000000     21.1550636     21.0815659      8.3991032
    684    683      5      0.0000000     23.2457561     23.0900230      8.4295511
    685    684      5      0.0000000     23.3703423     20.9729118     10.6323853
    686    685      5      0.0000000     21.1083603     23.0963879     10.5807972
    687    686      2      0.0000000     19.0102730     23.0092087     10.6087322
    688    687      1      0.0000000     16.8218136     20.9842873      8.2553997
    689    688      5      0.0000000     19.1675301     23.1491280      8.5990829
    690    689      5      0.0000000     18.8139496     20.9839134     10.3723936
    691    690      5      0.0000000     16.8019733     23.2927132     10.6043863
    692    691      2      0.0000000     14.7270155     23.2361374     10.4316311
    693    692      1      0.0000000     12.5986319     20.9168377      8.5187922
    694    693      5      0.0000000     14.7728348     23.2366524      8.3306894
    695    694      5      0.0000000     14.9285479     21.0225525     10.5008087
    696    695      5      0.0000000     12.6872034     23.2587395     10.4544449
    697    696      2      0.0000000     23.2900047     18.8599319     10.6279106
    698    697      1      0.0000000     21.0256615     16.7108021      8.4299917
    699    698      5      0.0000000     23.3215981     18.6420364      8.5495005
    700    699      5      0.0000000     23.1919765     16.7109566     10.6360035
    701    700      5      0.0000000     20.9781094     19.1735039     10.6810865
    702    701      2      0.0000000     18.9264603     18.9555740     10.5793629
    703    702      1      0.0000000     17.0211468     16.8567104      8.5968847
    704    703      5      0.0000000     19.0157471     18.8285789      8.3509607
    705    704      5      0.0000000     19.0260773     16.8305950     10.6489906
    706    705      5      0.0000000     16.8383846     18.8299026     10.4973221
    707    706      2      0.0000000     14.6935711     18.8843651     10.5072660
    708    707      1      0.0000000     12.7596521     16.8477383      8.4145517
    709    708      5      0.0000000     14.8734331     18.8042469      8.4384642
    710    709      5      0.0000000     14.8384466     16.6790066     10.6411600
    711    710      5      0.0000000     12.6730099     18.8808155     10.4411259
    712    711      2      0.0000000     23.2192650     14.6787357     10.4481735
    713    712      1      0.0000000     20.8131828     12.6896238      8.6258440
    714    713      5      0.0000000     23.3266010     14.5690937      8.3698177
    715    714      5      0.0000000     22.8549290     12.5146151     10.4188547
    716    715      5      0.0000000     21.0636120     14.7570143     10.4402485
    717    716      2      0.0000000     19.0344105     14.6709747     10.6174402
    718    717      1      0.0000000     16.8021622     12.5757694      8.4961128
    719    718      5      0.0000000     18.9140644     14.6806974      8.4364395
    720    719      5      0.0000000     19.0585861     12.4866095     10.5917072
    721    720      5      0.0000000     17.0136623     14.6340857     10.5711336
    722    721      2      0.0000000     14.9329557     14.5920343     10.5032749
    723    722      1      0.0000000     12.7128754     12.6089191      8.6786880
    724    723      5      0.0000000     14.8372192     14.6965446      8.4468603
    725    724      5      0.0000000     14.8704605     12.5338879     10.5381937
    726    725      5      0.0000000     12.6693258     14.7562494     10.6471462
    727    726      2      0.0000000     23.1657829     23.1510963      6.2803640
    728    727      1      0.0000000     21.2277145     20.8923378      4.3494673
    729    728      5      0.0000000     23.4189014     23.0982094      4.2116842
    730    729      5      0.0000000     23.0891171     21.0338173      6.2705927
    731    730      5      0.0000000     21.0068016     23.1691685      6.2063789
    732    731      2      0.0000000     18.8641243     23.0859070      6.3942680
    733    732      1      0.0000000     17.0280762     20.8930874      4.3871508
    734    733      5      0.0000000     18.7991238     23.1306095      4.2580328
    735    734      5      0.0000000     19.0575294     21.0327282      6.2689629
    736    735      5      0.0000000     16.8941956     23.1757603      6.6620264
    737    736      2      0.0000000     14.7777090     23.1892757      6.2298493
    738    737      1      0.0000000     12.7523661     21.0213184      4.2792220
    739    738      5      0.0000000     14.9208641     23.1201687      4.2279992
    740    739      5      0.0000000     14.8127575     20.9706955      6.3099704
    741    740      5      0.0000000     12.7456598     23.2976284      6.1264234
    742    741      2      0.0000000     23.2350903     18.7774487      6.2474165
    743    742      1      0.0000000     20.9951344     16.8630981      3.9825759
    744    743      5      0.0000000     23.1997070     18.8581448      4.1586795
    745    744      5      0.0000000     23.3360882     16.6863041      6.2284012
    746    745      5      0.0000000     21.0833893     18.9625130      6.1367545
    747    746      2      0.0000000     19.0447121     18.8939095      6.2394638
    748    747      1      0.0000000     16.9203510     16.6014290      4.0832472
    749    748      5      0.0000000     18.9834976     18.6519871      4.1527243
    750    749      5      0.0000000     19.1613770     16.6231995      6.2698627
    751    750      5      0.0000000     16.9909210     19.0406818      6.2733698
    752    751      2      0.0000000     14.8834829     18.7941742      6.4141088
    753    752      1      0.0000000     12.3909197     16.9624138      4.2056885
    754    753      5      0.0000000     14.7965279     18.8326187      4.3145170
    755    754      5      0.0000000     14.9328690     16.7648792      6.3795528
    756    755      5      0.0000000     12.7058477     18.8460464      6.3351054
    757    756      2      0.0000000     23.2360058     14.5775385      6.1363492
    758    757      1      0.0000000     21.0323086     12.3873358      4.1952538
    759    758      5      0.0000000     23.1604347     14.6068068      4.0368237
    760    759      5      0.0000000     23.1254520     12.5803881      6.1133094
    761    760      5      0.0000000     21.0528927     14.4037962      6.2684851
    762    761      2      0.0000000     18.9755650     14.5061493      6.2343535
    763    762      1      0.0000000     17.0461597     12.9005671      4.0051818
    764    763      5      0.0000000     18.9128990     14.5381832      4.1104946
    765    764      5      0.0000000     18.8013573     12.4454117      6.2535343
    766    765      5      0.0000000     16.9242935     14.6852875      6.2345486
    767    766      2      0.0000000     14.8526468     14.7325382      6.3178434
    768    767      1      0.0000000     12.8831730     12.4439430      4.1954336
    769    768      5      0.0000000     14.8608027     14.6746960      4.2101827
    770    769      5      0.0000000     14.7609463     12.6359186      6.2224283
    771    770      5      0.0000000     12.6682215     14.8093586      6.4534564
    772    771      2      0.0000000     23.1494808     23.0711613      2.2035880
    773    772      1      0.0000000     21.1840038     20.8394070      0.1416947
    774    773      5      0.0000000     23.1557522     22.9477863      0.0869182
    775    774      5      0.0000000     23.0731030     21.0110703      1.9375657
    776    775      5      0.0000000     21.0770779     23.2263889      2.3982255
    777    776      2      0.0000000     18.9998436     23.0778198      2.1937826
    778    777      1      0.0000000     16.5647106     21.0790043      0.0075648
    779    778      5      0.0000000     19.1896114     23.1086292      0.0894885
    780    779      5      0.0000000     19.1343555     20.9297543      2.3544722
    781    780      5      0.0000000     16.8849487     23.0673637      2.0195684
    782    781      2      0.0000000     14.8031893     23.1717892      2.1865561
    783    782      1      0.0000000     12.5515823     21.1182499      0.0388761
    784    783      5      0.0000000     14.8029976     23.0760536     25.2151260
    785    784      5      0.0000000     14.7493162     21.0211296      2.1643512
    786    785      5      0.0000000     12.6902075     23.2835922      2.0158732
    787    786      2      0.0000000     23.2806816     18.9052010      1.9969414
    788    787      1      0.0000000     21.2840538     17.0837250      0.0161203
    789    788      5      0.0000000     23.1775074     18.7393723     25.2080460
    790    789      5      0.0000000     23.2862377     16.8384476      2.1483414
    791    790      5      0.0000000     21.2222157     18.7884941      1.9244980
    792    791      2      0.0000000     18.9629173     18.7892189      2.0629787
    793    792      1      0.0000000     16.2577686     16.8694859      0.0629545
    794    793      5      0.0000000     19.0462742     18.9195118     25.2941704
    795    794      5      0.0000000     18.6858730     16.8249531      1.9634638
    796    795      5      0.0000000     16.8169994     18.8758640      2.1872456
    797    796      2      0.0000000     14.8074846     18.8154488      2.2288818
    798    797      1      0.0000000     12.7502232     16.7753773     25.2376118
    799    798      5      0.0000000     14.6746960     18.9104996      0.0786890
    800    799      5      0.0000000     14.7502031     16.7512989      2.0716565
    801    800      5      0.0000000     12.6020184     18.9721050      2.2744086
    802    801      2      0.0000000     23.2847157     14.8290558      2.0094917
    803    802      1      0.0000000     21.1462097     12.4761267     25.1802788
    804    803      5      0.0000000     23.1501122     14.7205505     25.2045631
    805    804      5      0.0000000     23.0962906     12.7498293      2.0454023
    806    805      5      0.0000000     20.8955936     15.0991602      1.9585406
    807    806      2      0.0000000     18.8839321     14.8126497      1.7452254
    808    807      1      0.0000000     16.8309193     12.7015181     25.0143757
    809    808      5      0.0000000     18.8120918     14.9422016     25.1003838
    810    809      5      0.0000000     18.7887192     12.6472788      1.7120337
    811    810      5      0.0000000     16.7446117     14.6810961      1.9298415
    812    811      2      0.0000000      2.1025290     14.6591730      2.1523173
    813    812      1      0.0000000      0.1236132     12.6010342     25.2871742
    814    813      5      0.0000000      2.1314278     14.7241869     25.2940140
    815    814      5      0.0000000      2.0854235     12.5122290      2.0377038
    816    815      5      0.0000000      0.0470832     14.6599131      1.8595892
    817    816      2      0.0000000     10.6537647     23.1796188     10.6177731
    818    817      1      0.0000000      8.3959122     21.1235275      8.6615019
    819    818      5      0.0000000     10.6903896     23.2512054      8.4543295
    820    819      5      0.0000000     10.7545071     21.0572739     10.6176491
    821    820      5      0.0000000      8.4735565     23.0790615     10.5569124
    822    821      2      0.0000000      6.3378816     23.1412067     10.6929102
    823    822      1      0.0000000      4.1962500     21.2324753      8.4102840
    824    823      5      0.0000000      6.3025293     23.4666538      8.6090050
    825    824      5      0.0000000      6.4358392     21.0452938     10.5417004
    826    825      5      0.0000000      4.2594275     22.9373970     10.5968580
    827    826      2      0.0000000      2.2169116     23.1356392     10.5476809
    828    827      1      0.0000000     25.1835899     20.8830700      8.3367577
    829    828      5      0.0000000      2.3014743     23.0636597      8.5100183
    830    829      5      0.0000000      1.9696043     20.9491501     10.7900591
    831    830      5      0.0000000      0.0635315     23.0800076     10.4759073
    832    831      2      0.0000000     10.5115089     18.9584179     10.5718279
    833    832      1      0.0000000      8.4516115     17.0665760      8.3159571
    834    833      5      0.0000000     10.4480228     19.1378994      8.4762192
    835    834      5      0.0000000     10.5173225     16.9237041     10.5371284
    836    835      5      0.0000000      8.4902573     19.0170975     10.7424812
    837    836      2      0.0000000      6.3508754     18.9985676     10.6590347
    838    837      1      0.0000000      4.1385307     17.0383739      8.4279709
    839    838      5      0.0000000      6.3476443     18.9504185      8.4696484
    840    839      5      0.0000000      6.2207246     16.9108906     10.7244778
    841    840      5      0.0000000      4.1937199     19.0479298     10.4325066
    842    841      2      0.0000000      2.0582111     18.9134579     10.6855593
    843    842      1      0.0000000      0.0239935     16.8664665      8.3339024
    844    843      5      0.0000000      1.7788622     18.8709698      8.4050245
    845    844      5      0.0000000      2.3175855     16.8815784     10.5331831
    846    845      5      0.0000000     25.3100891     18.7096462     10.7876673
    847    846      2      0.0000000     10.4709539     14.9084435     10.4534740
    848    847      1      0.0000000      8.3288050     12.7967348      8.4123716
    849    848      5      0.0000000     10.7531052     14.7790880      8.5046206
    850    849      5      0.0000000     10.3280754     12.5852518     10.4563351
    851    850      5      0.0000000      8.3961220     15.0516443     10.2220793
    852    851      2      0.0000000      6.2337723     14.8271589     10.5018406
    853    852      1      0.0000000      4.2652111     12.7129698      8.4294720
    854    853      5      0.0000000      6.2465229     14.5119705      8.3458710
    855    854      5      0.0000000      6.2621217     12.7386179     10.5724363
    856    855      5      0.0000000      4.2338271     14.8159914     10.3078642
    857    856      2      0.0000000      2.1789920     14.7446060     10.4380913
    858    857      1      0.0000000      0.1948709     12.6634712      8.2996578
    859    858      5      0.0000000      2.2262781     14.6938915      8.3354645
    860    859      5      0.0000000      2.0364881     12.6363525     10.4685745
    861    860      5      0.0000000      0.0604755     14.6908207     10.4052734
    862    861      2      0.0000000     10.6069841     23.2126217      6.3043313
    863    862      1      0.0000000      8.3598309     21.2289600      4.2632761
    864    863      5      0.0000000     10.5105400     22.8649044      4.1950769
    865    864      5      0.0000000     10.7220154     21.1519279      6.6241655
    866    865      5      0.0000000      8.5266838     23.4678593      6.3159409
    867    866      2      0.0000000      6.3950567     23.2802162      6.4659948
    868    867      1      0.0000000      4.0664330     20.8050079      3.9727201
    869    868      5      0.0000000      6.2137089     22.8800087      4.2377033
    870    869      5      0.0000000      6.7329926     21.2993412      6.6351361
    871    870      5      0.0000000      4.3101358     23.1007385      6.4722614
    872    871      2      0.0000000      2.0995860     23.0968227      6.4204111
    873    872      1      0.0000000      0.0814024     20.9602489      4.1972108
    874    873      5      0.0000000      2.0474257     23.0882530      4.3436170
    875    874      5      0.0000000      2.1142762     20.9259033      6.3015475
    876    875      5      0.0000000      0.0306096     23.0660267      6.5594163
    877    876      2      0.0000000     10.5878162     18.9586964      6.3919091
    878    877      1      0.0000000      8.4186649     17.0030556      4.2348356
    879    878      5      0.0000000     10.4351015     19.2015533      4.2095828
    880    879      5      0.0000000     10.4819527     16.9012108      6.4748354
    881    880      5      0.0000000      8.4848070     18.8856430      6.2584639
    882    881      2      0.0000000      6.3472643     18.9232178      6.3313355
    883    882      1      0.0000000      4.2029462     16.6905174      3.9195483
    884    883      5      0.0000000      6.3490348     18.8191204      4.2668271
    885    884      5      0.0000000      6.4748111     16.8193073      6.2954998
    886    885      5      0.0000000      4.1724606     18.9873447      6.3146973
    887    886      2      0.0000000      2.0758200     18.8399029      6.3178234
    888    887      1      0.0000000      0.0060059     17.0171394      4.2122889
    889    888      5      0.0000000      2.0969102     18.8194427      4.1321301
    890    889      5      0.0000000      1.9944837     16.8389454      6.3447962
    891    890      5      0.0000000     25.1997643     18.9755974      6.1385417
    892    891      2      0.0000000     10.6092062     14.5852947      6.4874568
    893    892      1      0.0000000      8.4863739     12.5900240      4.2386651
    894    893      5      0.0000000     10.6006765     14.8010721      4.4033270
    895    894      5      0.0000000     10.4809742     12.5478745      6.4743381
    896    895      5      0.0000000      8.5058508     14.5645199      6.5654173
    897    896      2      0.0000000      6.4732461     14.7209663      6.3426399
    898    897      1      0.0000000      4.2268949     12.2971420      4.0649114
    899    898      5      0.0000000      6.4682794     14.6969833      4.1955342
    900    899      5      0.0000000      6.5387387     12.5933495      6.0219345
    901    900      5      0.0000000      4.2703338     14.7501230      6.1387401
    902    901      2      0.0000000      2.1981637     14.6040659      6.0885167
    903    902      1      0.0000000     24.9850216     12.5068159      4.2347765
    904    903      5      0.0000000      2.1102159     14.7380400      4.1259637
    905    904      5      0.0000000      2.2626061     12.5413942      6.1855292
    906    905      5      0.0000000      0.0810118     14.4513502      5.9731183
    907    906      2      0.0000000     10.4853916     23.2487564      2.0569260
    908    907      1      0.0000000      8.1028166     20.9981613      0.0933222
    909    908      5      0.0000000     10.5223923     23.2890472     25.2455444
    910    909      5      0.0000000     10.3510637     21.0981083      1.8535181
    911    910      5      0.0000000      8.4615154     23.1574211      2.0170455
    912    911      2      0.0000000      6.2422709     23.0243721      2.1274674
    913    912      1      0.0000000      4.2109685     20.7781792     24.9961681
    914    913      5      0.0000000      6.3177218     23.0107861     25.2989311
    915    914      5      0.0000000      6.2166362     20.9891090      2.1668115
    916    915      5      0.0000000      4.2031360     23.2353477      2.1925297
    917    916      2      0.0000000      2.1540961     23.1943703      2.1245461
    918    917      1      0.0000000     25.3152523     21.0167198     25.2793694
    919    918      5      0.0000000      2.2145805     23.0753822     25.2973347
    920    919      5      0.0000000      2.2720098     20.8973598      2.0231545
    921    920      5      0.0000000      0.0781595     23.0697327      2.1467822
    922    921      2      0.0000000     10.5815716     19.0463982      2.0770102
    923    922      1      0.0000000      8.5195217     16.6794968      0.1980466
    924    923      5      0.0000000     10.7389135     18.9529400     25.2884655
    925    924      5      0.0000000     10.5905514     16.8101139      2.2660382
    926    925      5      0.0000000      8.4408970     18.7803783      1.9797825
    927    926      2      0.0000000      6.3307605     18.7636471      2.0925987
    928    927      1      0.0000000      4.1787276     16.8894958     25.1797791
    929    928      5      0.0000000      6.3203731     18.8032093     -0.0030111
    930    929      5      0.0000000      6.1496034     16.7721348      2.1034663
    931    930      5      0.0000000      4.2491937     18.8073025      2.1390245
    932    931      2      0.0000000      2.1779687     18.8721695      2.0547481
    933    932      1      0.0000000     25.1758347     16.7208366     25.1148033
    934    933      5      0.0000000      1.9898243     18.7989788      0.0123637
    935    934      5      0.0000000      2.0802021     16.7391186      2.2319615
    936    935      5      0.0000000     25.2812080     19.0804443      2.1508963
    937    936      2      0.0000000     10.5191584     14.6948137      2.2982786
    938    937      1      0.0000000      8.3835449     12.5786600      0.1937792
    939    938      5      0.0000000     10.4613476     14.6068516      0.1049451
    940    939      5      0.0000000     10.5184946     12.6633444      2.1720653
    941    940      5      0.0000000      8.4513798     14.7534704      2.3559330
    942    941      2      0.0000000      6.3402066     14.6727057      2.2088788
    943    942      1      0.0000000      4.3115587     12.8507566     25.3084106
    944    943      5      0.0000000      6.7276521     14.7426996      0.1104146
    945    944      5      0.0000000      6.2405500     12.5366879      1.9046762
    946    945      5      0.0000000      4.2273345     14.6507673      1.9920417
    947    946      2      0.0000000     14.7986193      2.0235415      2.0924695
    948    947      1      0.0000000     12.6168165     25.3155975      0.0160460
    949    948      5      0.0000000     14.6034298      2.0316236     25.2875214
    950    949      5      0.0000000     14.8913355     25.2225761      2.2283282
    951    950      5      0.0000000     12.6583071      1.9369934      2.2007470
    952    951      2      0.0000000     23.2078152     10.3979092     10.4902325
    953    952      1      0.0000000     20.9307766      8.3179274      8.5495138
    954    953      5      0.0000000     23.2210636     10.5065479      8.4223766
    955    954      5      0.0000000     23.2323971      8.2352152     10.6066256
    956    955      5      0.0000000     21.1080685     10.1925516     10.5784864
    957    956      2      0.0000000     19.0550671     10.3380051     10.6465178
    958    957      1      0.0000000     17.0001297      8.4725666      8.3982916
    959    958      5      0.0000000     19.0023365     10.3598967      8.4296694
    960    959      5      0.0000000     19.0023403      8.2205639     10.5027819
    961    960      5      0.0000000     17.0159512     10.2887030     10.5382624
    962    961      2      0.0000000     14.9291811     10.4081135     10.6341238
    963    962      1      0.0000000     12.8103180      8.2305336      8.5341749
    964    963      5      0.0000000     14.8399925     10.6106968      8.5809650
    965    964      5      0.0000000     14.7726593      8.3810329     10.5923052
    966    965      5      0.0000000     12.5965223     10.5800257     10.6406078
    967    966      2      0.0000000     23.1250114      6.2236600     10.5239086
    968    967      1      0.0000000     20.9982738      4.2176318      8.5187397
    969    968      5      0.0000000     23.0329132      6.1872087      8.4314938
    970    969      5      0.0000000     23.1155281      4.1391549     10.5650530
    971    970      5      0.0000000     21.0995541      6.1421742     10.5876322
    972    971      2      0.0000000     19.0291595      6.1645880     10.6491756
    973    972      1      0.0000000     16.9617100      4.1278586      8.3761721
    974    973      5      0.0000000     19.1305714      6.2056255      8.3811283
    975    974      5      0.0000000     19.0509892      4.1258764     10.8624134
    976    975      5      0.0000000     16.9562492      6.2041664     10.5994301
    977    976      2      0.0000000     14.8609991      6.2749848     10.5662117
    978    977      1      0.0000000     12.7729158      4.0661817      8.4198866
    979    978      5      0.0000000     14.8805876      6.4307375      8.3861895
    980    979      5      0.0000000     14.9058504      4.2527761     10.2901754
    981    980      5      0.0000000     12.7701864      6.2943769     10.6922359
    982    981      2      0.0000000     23.1786652      2.0770388     10.4634266
    983    982      1      0.0000000     21.0507889     25.2193375      8.6414938
    984    983      5      0.0000000     23.0780258      2.0189922      8.3579578
    985    984      5      0.0000000     23.2271614     -0.0046806     10.4857826
    986    985      5      0.0000000     21.1398640      2.0031929     10.7301559
    987    986      2      0.0000000     18.9807968      2.0006459     10.7073545
    988    987      1      0.0000000     16.9751587     25.2860603      8.4283133
    989    988      5      0.0000000     19.0535870      2.2352393      8.5265388
    990    989      5      0.0000000     19.0339108     25.2241077     10.6097746
    991    990      5      0.0000000     16.9154072      1.9953092     10.5534658
    992    991      2      0.0000000     14.7997065      2.1950879     10.4899797
    993    992      1      0.0000000     12.6013136      0.0988725      8.4254160
    994    993      5      0.0000000     14.8306589      2.0675585      8.3657169
    995    994      5      0.0000000     14.6230545      0.0923085     10.6422853
    996    995      5      0.0000000     12.7049885      2.3243670     10.5569963
    997    996      2      0.0000000     23.0410213     10.5020981      6.3071036
    998    997      1      0.0000000     21.2233715      8.4776049      4.1378407
    999    998      5      0.0000000     23.0591965     10.7182531      4.1921902
   1000    999      5      0.0000000     23.2965546      8.4020014      6.2218256
   1001   1000      5      0.0000000     20.9731064     10.4736185      6.2157564
   1002   1001      2      0.0000000     18.8929310     10.4128923      6.3532791
   1003   1002      1      0.0000000     16.9187393      8.3764009      4.3017159
   1004   1003      5      0.0000000     18.8522167     10.4997873      3.9802928
   1005   1004      5      0.0000000     19.0096989      8.3809547      6.1575208
   1006   1005      5      0.0000000     16.8973770     10.5446281      6.5278444
   1007   1006      2      0.0000000     14.9374056     10.6072102      6.2505522
   1008   1007      1      0.0000000     12.7984209      8.4175959      4.2736664
   1009   1008      5      0.0000000     15.1633997     10.3310728      4.0967994
   1010   1009      5      0.0000000     14.9382324      8.4941177      6.3003640
   1011   1010      5      0.0000000     12.8719721     10.5693121      6.2505221
   1012   1011      2      0.0000000     23.2261219      6.2353048      6.2552867
   1013   1012      1      0.0000000     21.3452454      4.1182070      4.3441987
   1014   1013      5      0.0000000     23.2547169      6.2945404      4.1638813
   1015   1014      5      0.0000000     23.2608929      4.1136928      6.1705546
   1016   1015      5      0.0000000     21.2065868      6.3773236      6.2457471
   1017   1016      2      0.0000000     19.1565971      6.3402157      6.1583200
   1018   1017      1      0.0000000     16.9560986      4.1544781      4.3678918
   1019   1018      5      0.0000000     19.2482281      6.4273486      4.1253734
   1020   1019      5      0.0000000     19.1796093      4.2440267      6.3505263
   1021   1020      5      0.0000000     17.0156078      6.2715764      6.2793927
   1022   1021      2      0.0000000     14.9063139      6.3589044      6.3468518
   1023   1022      1      0.0000000     12.7707348      4.1878052      4.2319083
   1024   1023      5      0.0000000     14.8778582      6.3984752      4.2526259
   1025   1024      5      0.0000000     14.8308725      4.1896353      6.4088502
   1026   1025      5      0.0000000     12.7874937      6.2756195      6.3793111
   1027   1026      2      0.0000000     23.1216640      1.9395041      6.3046422
   1028   1027      1      0.0000000     20.8835087     25.1864262      4.1443262
   1029   1028      5      0.0000000     23.3121204      2.0955534      4.2104440
   1030   1029      5      0.0000000     23.2666912     25.1525860      6.3375902
   1031   1030      5      0.0000000     21.0242577      2.0410206      6.2928791
   1032   1031      2      0.0000000     18.9805622      2.1518109      6.3485622
   1033   1032      1      0.0000000     16.7963963     25.1814060      4.0669560
   1034   1033      5      0.0000000     18.7429295      2.1033962      4.1961861
   1035   1034      5      0.0000000     18.9381924     25.2131729      6.3385997
   1036   1035      5      0.0000000     16.9574642      2.0879555      6.3417139
   1037   1036      2      0.0000000     14.9266443      2.0477014      6.2354994
   1038   1037      1      0.0000000     12.6763744     25.2759056      4.3091335
   1039   1038      5      0.0000000     14.9124794      2.2162330      4.1812510
   1040   1039      5      0.0000000     14.9205103     25.3021088      6.0714388
   1041   1040      5      0.0000000     12.7327986      1.8865575      6.2783294
   1042   1041      2      0.0000000     23.1261330     10.6738644      1.9914955
   1043   1042      1      0.0000000     21.1739864      8.2557154     24.9134636
   1044   1043      5      0.0000000     23.1637974     10.6676435     25.2084808
   1045   1044      5      0.0000000     23.1792736      8.5249805      2.1541700
   1046   1045      5      0.0000000     21.0579414     10.5629501      1.8618916
   1047   1046      2      0.0000000     18.9551373     10.5269089      1.8686037
   1048   1047      1      0.0000000     16.9882450      8.3708229     25.2348652
   1049   1048      5      0.0000000     19.1341457     10.6379700     25.1333714
   1050   1049      5      0.0000000     19.0395546      8.3140049      1.8283963
   1051   1050      5      0.0000000     16.9209442     10.5055971      1.5855120
   1052   1051      2      0.0000000     14.9596243     10.4981165      1.9895899
   1053   1052      1      0.0000000     12.9063101      8.5010948     25.2833385
   1054   1053      5      0.0000000     14.6180487     10.5379419     -0.0110880
   1055   1054      5      0.0000000     14.7799187      8.3773766      2.0714931
   1056   1055      5      0.0000000     12.7070379     10.7065783      2.2010424
   1057   1056      2      0.0000000     23.2129898      6.2692037      2.1355064
   1058   1057      1      0.0000000     21.1618309      4.0716205      0.0083753
   1059   1058      5      0.0000000     23.2394390      6.2609367     25.2629509
   1060   1059      5      0.0000000     23.1739693      4.0899410      2.1347668
   1061   1060      5      0.0000000     21.1997452      6.0680251      2.0843086
   1062   1061      2      0.0000000     19.1328259      6.2198505      2.0828695
   1063   1062      1      0.0000000     17.0684280      4.0401425      0.2715316
   1064   1063      5      0.0000000     19.2413235      6.1684227     25.3141937
   1065   1064      5      0.0000000     19.0371723      4.0882196      2.3554912
   1066   1065      5      0.0000000     16.9060516      6.0629349      2.0603771
   1067   1066      2      0.0000000     14.7469959      6.3220868      2.1533873
   1068   1067      1      0.0000000     12.8269558      4.3600321      0.1539655
   1069   1068      5      0.0000000     14.8217802      6.4234405      0.0634624
   1070   1069      5      0.0000000     14.7484980      4.2185922      2.0394578
   1071   1070      5      0.0000000     12.7059927      6.3266835      2.3374016
   1072   1071      2      0.0000000     23.2320309      1.9707513      2.0978475
   1073   1072      1      0.0000000     21.1657639     24.9187431     25.2135143
   1074   1073      5      0.0000000     23.2193966      2.2556016     25.2486706
   1075   1074      5      0.0000000     23.2866440     25.1742554      2.0782363
   1076   1075      5      0.0000000     21.1595306      1.8149272      2.2824948
   1077   1076      2      0.0000000     19.0309315      1.9885426      2.1474624
   1078   1077      1      0.0000000     16.8336792     25.0902195     25.0298557
   1079   1078      5      0.0000000     19.0340843      2.1511333     25.3061790
   1080   1079      5      0.0000000     18.9865456     25.2444973      2.1902077
   1081   1080      5      0.0000000     16.8493481      2.0458472      1.9059623

 Bonds

       1       1       1       2
