LAMMPS (2 Aug 2023 - Development - patch_2Aug2023-425-g3e9f1c8af2-modified)
OMP_NUM_THREADS environment is not set. Defaulting to 1 thread. (src/comm.cpp:98)
  using 1 OpenMP thread(s) per MPI task
thermo_modify flush yes

# ------ Units -------------------------------------
units metal                                           # eV, ps, Angstrom, bar

# ------ Timer ----------- -------------------------
timer timeout 23:55:00 every 1000
New timer settings: style=normal  mode=nosync  timeout=23:55:00

# ------ Simulation files --------------------------
variable ff_file        index           ff.lmp   # force field file
variable coord_file     index             coord.lmp   # coordinates file
variable runID          index                     0   # run ID for final restart
variable rstID          equal            ${runID}-1   # ID of previous  restart
variable rstID          equal            0-1   
variable traj_file      index   trajectory.${runID}   # trajectory file - no extension
variable traj_file      index   trajectory.0   
variable old_restart    index      restart.${rstID}   # previous restart file
variable old_restart    index      restart.-1   
variable new_restart    index      restart.${runID}   # current restart file
variable new_restart    index      restart.0   

# ------ Simulation type ---------------------------
variable single         index                   no    # single point calculation
variable minimisation   index                   no    # energy minimisation
variable relax_cell     index                   no    # energy minimisation with variable cell
variable md             index                  yes    # molecular dynamics
variable plumed         index                   no    # PLUMED: metadynamics, umbrella sampling...
variable fep            index                   no    # free energy perturbation
variable ti             index                   no    # thermodynamic integration
variable multiRun       index                   no    # task farming of runs

# ------ Molecular dynamics variables --------------
variable ens            index                  nvt    # ensemble (nve, nph, nvt, npt)
variable timestep       index                0.001    # simulation timestep (time units)
variable nsteps         index               100000    # number of MD steps
variable nequil         index               100000    # equilibration steps - FEP only

# ------ Thermostat --------------------------------
variable tst            index                 csvr    # thermostat (nh, ber, lang, csvr)
variable temp           index                 1500.    # starting temperature (K)
variable trel           index                  0.1    # thermostat relaxation time (time units)

# ------ Barostat (NPT runs only) ------------------
variable npttype        index                  iso    # type of NPT (iso, aniso, tri, z...)
variable pres           index                    1    # pressure bar/atm
variable prel           index                    1.   # barostat relaxation time (time units)

# ------ Output ------------------------------------
variable nthermo        index                  50    # thermodynamic data output frequency
variable ntraj          index                 100    # trajectory output frequency - all system
variable trajType       index                  dcd    # trajectory type (dcd, xtc, xyz)

# ------ Random number seeds -----------------------
variable iseed0         index                15973    # Random seed for initial velocities
variable iseed1         index                96248    # Ramdom seed for the stochastic thermostats

# ------ PLUMED variables --------------------------
variable plumed_infile  index         "plumed.inp"
variable plumed_dir     index            "Walker_"

# ------ FEP variables -----------------------------
variable fep_file       index            "fep.inp"
variable fep_dir        index                 "./"
variable gewald         index                  0.3

# ------ FEP variables -----------------------------
variable multi_dir      index               "run_"

# ------ Multiple Runs/Task Farming ----------------
variable nRepl          index                    1
if "${nRepl} < 2" then "jump SELF end_farming"
jump SELF end_farming

# ------ Atom Style --------------------------------
atom_style full

# ------ Period Boundary Conditions ----------------
boundary p p p                                        # 3D Periodic Boundary Conditions

# ------ Read Coordinates and Topology -------------
box tilt large

The 'box' command has been removed and will be ignored

if "${runID} == 0" then "read_data ${coord_file}"     # Charges, coordinates and topology are defined here
read_data ${coord_file}
read_data coord.lmp
Reading data file ...
  orthogonal box = (0 0 0) to (25.2 25.2 25.2)
  2 by 2 by 4 MPI processor grid
  reading atoms ...
  1081 atoms
  scanning bonds ...
  1 = max bonds/atom
  reading bonds ...
  1 bonds
Finding 1-2 1-3 1-4 neighbors ...
  special bond factors lj:    0        0        0       
  special bond factors coul:  0        0        0       
     1 = max # of 1-2 neighbors
     0 = max # of 1-3 neighbors
     0 = max # of 1-4 neighbors
     1 = max # of special neighbors
  special bonds CPU = 0.001 seconds
  read_data CPU = 0.040 seconds
if "${runID} >= 1" then "read_restart ${old_restart}" # Restart simulation
change_box all triclinic
Changing box ...
  triclinic box = (0 0 0) to (25.2 25.2 25.2) with tilt (0 0 0)

# ------ Read Force Field --------------------------
include ${ff_file}
include ff.lmp
##############################################################################################
#### Atoms' types - mass - charge
##############################################################################################
#@ 7   atom types

variable Ba  equal 1
variable Zr  equal 2
variable  Y  equal 3
variable O1  equal 4
variable O2  equal 5
variable O3  equal 6
variable H1  equal 7

##############################################################################################
#### Atoms' masses
##############################################################################################

mass  ${Ba}   137.327
mass  1   137.327
mass  ${Zr}    91.224
mass  2    91.224
mass  ${Y}     88.910
mass  3     88.910
mass  ${O1}    15.996
mass  4    15.996
mass  ${O2}    15.996
mass  5    15.996
mass  ${O3}    15.996
mass  6    15.996
mass  ${H1}     1.010
mass  7     1.010

##############################################################################################
#### Atoms' charges
##############################################################################################

set type ${Ba}  charge     2.000000
set type 1  charge     2.000000
Setting atom values ...
  216 settings made for charge
set type ${Zr}  charge     4.000000
set type 2  charge     4.000000
Setting atom values ...
  216 settings made for charge
set type ${Y}   charge     3.000000
set type 3   charge     3.000000
Setting atom values ...
  0 settings made for charge
set type ${O1}  charge    -1.308698
set type 4  charge    -1.308698
Setting atom values ...
  1 settings made for charge
set type ${O2}  charge    -2.000000
set type 5  charge    -2.000000
Setting atom values ...
  647 settings made for charge
set type ${O3}  charge    -2.000000
set type 6  charge    -2.000000
Setting atom values ...
  0 settings made for charge
set type ${H1}  charge     0.308698
set type 7  charge     0.308698
Setting atom values ...
  1 settings made for charge

##############################################################################################
#### Covalent bonds parameters
##############################################################################################
#@  1   bond types

bond_style harmonic
#@ O1 - H1
bond_coeff   1      23.008000      0.985357

##############################################################################################
# Pair potentials
##############################################################################################

variable rmin  equal  8.
variable rmax  equal 10.

pair_style hybrid/overlay buck/mdf ${rmin} ${rmax} lennard/mdf ${rmin} ${rmax} coul/long ${rmax}
pair_style hybrid/overlay buck/mdf 8 ${rmax} lennard/mdf ${rmin} ${rmax} coul/long ${rmax}
pair_style hybrid/overlay buck/mdf 8 10 lennard/mdf ${rmin} ${rmax} coul/long ${rmax}
pair_style hybrid/overlay buck/mdf 8 10 lennard/mdf 8 ${rmax} coul/long ${rmax}
pair_style hybrid/overlay buck/mdf 8 10 lennard/mdf 8 10 coul/long ${rmax}
pair_style hybrid/overlay buck/mdf 8 10 lennard/mdf 8 10 coul/long 10

##############################################################################################
# Buckingham interaction potentials
pair_coeff  ${Ba}  ${O1}  buck/mdf   688.21662   0.392014   0.000
pair_coeff  1  ${O1}  buck/mdf   688.21662   0.392014   0.000
pair_coeff  1  4  buck/mdf   688.21662   0.392014   0.000
pair_coeff  ${Ba}  ${O2}  buck/mdf   972.19945   0.392014   0.000
pair_coeff  1  ${O2}  buck/mdf   972.19945   0.392014   0.000
pair_coeff  1  5  buck/mdf   972.19945   0.392014   0.000
pair_coeff  ${Ba}  ${O3}  buck/mdf   972.19945   0.392014   0.000
pair_coeff  1  ${O3}  buck/mdf   972.19945   0.392014   0.000
pair_coeff  1  6  buck/mdf   972.19945   0.392014   0.000

pair_coeff  ${Y}   ${O1}  buck/mdf   2972.3808   0.267317   0.000
pair_coeff  3   ${O1}  buck/mdf   2972.3808   0.267317   0.000
pair_coeff  3   4  buck/mdf   2972.3808   0.267317   0.000
pair_coeff  ${Y}   ${O2}  buck/mdf   4121.8373   0.280386   0.000
pair_coeff  3   ${O2}  buck/mdf   4121.8373   0.280386   0.000
pair_coeff  3   5  buck/mdf   4121.8373   0.280386   0.000
pair_coeff  ${Y}   ${O3}  buck/mdf   4121.8373   0.280386   0.000
pair_coeff  3   ${O3}  buck/mdf   4121.8373   0.280386   0.000
pair_coeff  3   6  buck/mdf   4121.8373   0.280386   0.000

pair_coeff  ${Zr}  ${O1}  buck/mdf   2195.8712   0.298760   0.000
pair_coeff  2  ${O1}  buck/mdf   2195.8712   0.298760   0.000
pair_coeff  2  4  buck/mdf   2195.8712   0.298760   0.000
pair_coeff  ${Zr}  ${O2}  buck/mdf   3250.8545   0.298760   0.000
pair_coeff  2  ${O2}  buck/mdf   3250.8545   0.298760   0.000
pair_coeff  2  5  buck/mdf   3250.8545   0.298760   0.000
pair_coeff  ${Zr}  ${O3}  buck/mdf   3250.8545   0.298760   0.000
pair_coeff  2  ${O3}  buck/mdf   3250.8545   0.298760   0.000
pair_coeff  2  6  buck/mdf   3250.8545   0.298760   0.000

pair_coeff  ${O1}  ${O1}  buck/mdf   22764.000   0.149000   0.000
pair_coeff  4  ${O1}  buck/mdf   22764.000   0.149000   0.000
pair_coeff  4  4  buck/mdf   22764.000   0.149000   0.000
pair_coeff  ${O1}  ${O2}  buck/mdf   22764.000   0.149000   0.000
pair_coeff  4  ${O2}  buck/mdf   22764.000   0.149000   0.000
pair_coeff  4  5  buck/mdf   22764.000   0.149000   0.000
pair_coeff  ${O1}  ${O3}  buck/mdf   22764.000   0.149000   0.000
pair_coeff  4  ${O3}  buck/mdf   22764.000   0.149000   0.000
pair_coeff  4  6  buck/mdf   22764.000   0.149000   0.000

pair_coeff  ${O2}  ${O2}  buck/mdf   22764.000   0.149000   0.000
pair_coeff  5  ${O2}  buck/mdf   22764.000   0.149000   0.000
pair_coeff  5  5  buck/mdf   22764.000   0.149000   0.000
pair_coeff  ${O2}  ${O3}  buck/mdf   22764.000   0.149000   0.000
pair_coeff  5  ${O3}  buck/mdf   22764.000   0.149000   0.000
pair_coeff  5  6  buck/mdf   22764.000   0.149000   0.000

pair_coeff  ${O3}  ${O3}  buck/mdf   22764.000   0.149000   0.000
pair_coeff  6  ${O3}  buck/mdf   22764.000   0.149000   0.000
pair_coeff  6  6  buck/mdf   22764.000   0.149000   0.000

##############################################################################################
# 12-6 Lennard-Jones potentials
pair_coeff  ${O1}  ${H1}  lennard/mdf    6.391   0.000
pair_coeff  4  ${H1}  lennard/mdf    6.391   0.000
pair_coeff  4  7  lennard/mdf    6.391   0.000
pair_coeff  ${O2}  ${H1}  lennard/mdf    6.391   0.000
pair_coeff  5  ${H1}  lennard/mdf    6.391   0.000
pair_coeff  5  7  lennard/mdf    6.391   0.000
pair_coeff  ${O3}  ${H1}  lennard/mdf    7.800   0.000
pair_coeff  6  ${H1}  lennard/mdf    7.800   0.000
pair_coeff  6  7  lennard/mdf    7.800   0.000

##############################################################################################
# Coulombic interaction
pair_coeff      *      *  coul/long

#########################################################################################################
# Parameters for reciprocal space electrostatics
#########################################################################################################

kspace_style pppm 1.0e-5
kspace_modify fftbench no

# ------ Group definitions -------------------------

# ------ Energy minimisation -----------------------
if "${runID} > 0" then "jump SELF end_minimise"
if "${minimisation} == no && ${relax_cell} == no" then "jump SELF end_minimise"
jump SELF end_minimise

# ------ PLUMED ------------------------------------
if "${plumed} == no" then "jump SELF end_plumed"
jump SELF end_plumed

# ------ Ensemble ----------------------------------
group free id > 0
1081 atoms in group free
variable fixAtoms string "all"

# nve/nph
if "${ens} == nve"                  then "fix md ${fixAtoms} nve"
if "${ens} == nph"                  then "fix md ${fixAtoms} nph ${npttype} ${pres} ${pres} ${prel} tchain 5 pchain 5 mtk yes"
if "${ens} == nph || ${ens} == nve" then "jump SELF end_ensemble"
# Nose-Hoover
if "${ens} == nvt && ${tst} == nh"  then "fix tst ${fixAtoms} nvt temp ${temp} ${temp} ${trel} tchain 5"
if "${ens} == npt && ${tst} == nh"  then "fix tst ${fixAtoms} npt temp ${temp} ${temp} ${trel} ${npttype} ${pres} ${pres} ${prel} tchain 5 pchain 5 mtk yes"
# Other thermostats
if "${ens} == nvt && ${tst} != nh"  then "fix md ${fixAtoms} nve"
fix md ${fixAtoms} nve
fix md all nve
if "${ens} == npt && ${tst} != nh"  then "fix md ${fixAtoms} nph ${npttype} ${pres} ${pres} ${prel} tchain 5 pchain 5 mtk yes"
if "${tst} == ber"                  then "fix tst ${fixAtoms} temp/berendsen ${temp} ${temp} ${trel}"
if "${tst} == lang"                 then "fix tst ${fixAtoms} langevin ${temp} ${temp} ${trel} ${iseed1} tally yes zero yes"
if "${tst} == csvr"                 then "fix tst ${fixAtoms} temp/csvr ${temp} ${temp} ${trel} ${iseed1}"
fix tst ${fixAtoms} temp/csvr ${temp} ${temp} ${trel} ${iseed1}
fix tst all temp/csvr ${temp} ${temp} ${trel} ${iseed1}
fix tst all temp/csvr 1500. ${temp} ${trel} ${iseed1}
fix tst all temp/csvr 1500. 1500. ${trel} ${iseed1}
fix tst all temp/csvr 1500. 1500. 0.1 ${iseed1}
fix tst all temp/csvr 1500. 1500. 0.1 96248
label end_ensemble

variable myTemp string "temp"
if "${fixAtoms} == all" then "jump SELF end_temp"
jump SELF end_temp

# ------ Thermodynamic output ----------------------
variable str_basic string 'step time pe ${myTemp} press cella cellb cellc cellalpha cellbeta cellgamma'
step time pe temp press cella cellb cellc cellalpha cellbeta cellgamma

# ------ Use target pressure for the Enthalpy ------
variable pv2h equal 1602191.7 # for metal units
variable enth equal etotal+${pres}*vol/${pv2h}
variable enth equal etotal+1*vol/${pv2h}
variable enth equal etotal+1*vol/1602191.7

if "${ens} == nve" then "variable str_ens string 'etotal'"
if "${ens} == nvt" then "variable str_ens string ''"
variable str_ens string ''
if "${ens} == npt" then "variable str_ens string 'vol density'"
if "${ens} == nph" then "variable str_ens string 'vol v_enth'"

thermo_style custom ${str_basic} ${str_ens} cpu cpuremain
thermo_style custom step time pe temp press cella cellb cellc cellalpha cellbeta cellgamma ${str_ens} cpu cpuremain
thermo_style custom step time pe temp press cella cellb cellc cellalpha cellbeta cellgamma  cpu cpuremain
WARNING: New thermo_style command, previous thermo_modify settings will be lost (src/output.cpp:904)
thermo ${nthermo}
thermo 50
thermo_modify flush yes

# ------ Time step ---------------------------------
timestep ${timestep}
timestep 0.001

# ------ Initial velocities and COM motion ---------
if "${runID} == 0" then "velocity free create ${temp} ${iseed0} mom yes dist gaussian"
velocity free create ${temp} ${iseed0} mom yes dist gaussian
velocity free create 1500. ${iseed0} mom yes dist gaussian
velocity free create 1500. 15973 mom yes dist gaussian
fix com all momentum 1000 linear 1 1 1

# ------ Periodic Checkpoint -----------------------
restart 100000 checkpoint.1 checkpoint.2

# ------ Trajectory output -------------------------
if "${ntraj} <= 0 || ${ntraj} > ${nsteps} || ${nsteps} == 0 || ${multiRun} == yes" then "jump SELF end_dump"
  dump traj all ${trajType} ${ntraj} ${traj_file}.${trajType}
  dump traj all dcd ${ntraj} ${traj_file}.${trajType}
  dump traj all dcd 100 ${traj_file}.${trajType}
  dump traj all dcd 100 trajectory.0.${trajType}
  dump traj all dcd 100 trajectory.0.dcd
  dump_modify traj unwrap yes
label end_dump

# ------ Thermodynamic integration -----------------
if "${ti} == no" then "variable nt equal ${nsteps}" "jump SELF end_ti"
variable nt equal ${nsteps}
variable nt equal 100000
jump SELF end_ti

# ------ Free Energy Perturbation ------------------
if "${fep} == no" then "jump SELF end_fep"
jump SELF end_fep

# ------ Multiple Molecular Dynamics ------------------------
if "${multiRun} == no" then "jump SELF end_multi"
jump SELF end_multi

# ------ Molecular Dynamics ------------------------
if "${md} == no && ${plumed} == no" then "jump SELF end_md"
  run ${nsteps}
  run 100000
PPPM initialization ...
WARNING: System is not charge neutral, net charge = 1 (src/kspace.cpp:327)
  using 12-bit tables for long-range coulomb (src/kspace.cpp:342)
  G vector (1/distance) = 0.34521975
  grid = 40 40 40
  stencil order = 5
  estimated absolute RMS force accuracy = 0.00013825781
  estimated relative force accuracy = 9.6014736e-06
  using double precision FFTW3
  3d grid and FFT values/proc = 15979 4800
Generated 0 of 21 mixed pair_coeff terms from geometric mixing rule
Neighbor list info ...
  update: every = 1 steps, delay = 0 steps, check = yes
  max neighbors/atom: 2000, page size: 100000
  master list distance cutoff = 12
  ghost atom cutoff = 12
  binsize = 6, bins = 5 5 5
  3 neighbor lists, perpetual/occasional/extra = 3 0 0
  (1) pair buck/mdf, perpetual, skip from (3)
      attributes: half, newton on
      pair build: skip
      stencil: none
      bin: none
  (2) pair lennard/mdf, perpetual, skip from (3)
      attributes: half, newton on
      pair build: skip
      stencil: none
      bin: none
  (3) pair coul/long, perpetual
      attributes: half, newton on
      pair build: half/bin/newton/tri
      stencil: half/bin/3d/tri
      bin: standard
Per MPI rank memory allocation (min/avg/max) = 9.054 | 9.109 | 9.261 Mbytes
   Step          Time          PotEng          Temp          Press          Cella          Cellb          Cellc        CellAlpha       CellBeta      CellGamma         CPU          CPULeft    
         0   0             -31447.377      1500           22478.225      25.2           25.2           25.2           90             90             90             0              0            
        50   0.05          -31424.987      1360.3538      26258.518      25.2           25.2           25.2           90             90             90             0.18458383     368.98477    
       100   0.1           -31422.214      1367.5074      24816.901      25.2           25.2           25.2           90             90             90             0.36797135     367.60397    
       150   0.15          -31409.689      1392.5127      26496.023      25.2           25.2           25.2           90             90             90             0.54743697     364.4112     
       200   0.2           -31411.825      1451.6749      28613.542      25.2           25.2           25.2           90             90             90             0.72309037     360.82238    
       250   0.25          -31406.697      1431.7658      30004.771      25.2           25.2           25.2           90             90             90             0.89932525     358.83102    
       300   0.3           -31410.748      1469.4043      28076.342      25.2           25.2           25.2           90             90             90             1.0761206      357.63093    
       350   0.35          -31415.68       1462.7259      27140.992      25.2           25.2           25.2           90             90             90             1.2456872      354.66511    
       400   0.4           -31405.395      1460.8618      30223.841      25.2           25.2           25.2           90             90             90             1.4324116      356.67061    
       450   0.45          -31410.069      1522.9057      27576.935      25.2           25.2           25.2           90             90             90             1.6213691      358.68299    
       500   0.5           -31401.178      1510.8343      28447.49       25.2           25.2           25.2           90             90             90             1.8221678      362.6115     
       550   0.55          -31397.181      1493.8386      31103.608      25.2           25.2           25.2           90             90             90             2.0015846      361.92299    
       600   0.6           -31394.732      1495.3989      30503.657      25.2           25.2           25.2           90             90             90             2.1802306      361.19163    
       650   0.65          -31401.459      1517.2022      29064.651      25.2           25.2           25.2           90             90             90             2.3559488      360.09782    
       700   0.7           -31400.219      1504.3733      30657.242      25.2           25.2           25.2           90             90             90             2.5316629      359.13454    
