LAMMPS description

    1081          atoms
       1          bonds
       0         angles
       0      dihedrals
       0      impropers

       7     atom types
       1     bond types
       0    angle types
       0 dihedral types
       0 improper types


  0.0000000      25.335000     xlo xhi
  0.0000000      25.134000     ylo yhi
  0.0000000      25.264000     zlo zhi

 Atoms

      1      1      2      0.0000000      2.1860000      2.0550000      2.1480000
      2      2      1      0.0000000     -0.2700000     -0.1880000      0.2220000
      3      3      5      0.0000000      2.2330000      2.0750000     -0.0140000
      4      4      5      0.0000000      2.2220000      0.1020000      1.9300000
      5      5      5      0.0000000     -0.0200000      2.1870000      2.0090000
      6      6      2      0.0000000     10.6300000     10.5030000     10.4730000
      7      7      1      0.0000000      8.4670000      8.3300000      8.4160000
      8      8      5      0.0000000     10.5500000     10.4060000      8.4740000
      9      9      5      0.0000000     10.7330000      8.4310000     10.4140000
     10     10      5      0.0000000      8.3290000     10.6610000     10.3610000
     11     11      2      0.0000000      6.2750000     10.4550000     10.4680000
     12     12      1      0.0000000      3.9950000      8.4490000      8.4940000
     13     13      5      0.0000000      6.1760000     10.4890000      8.4040000
     14     14      5      0.0000000      4.2750000     10.4490000     10.4980000
     15     15      2      0.0000000      2.0890000     10.5970000     10.4630000
     16     16      1      0.0000000      0.0350000      8.2670000      8.5590000
     17     17      5      0.0000000      2.1860000     10.4640000      8.4280000
     18     18      5      0.0000000      1.9570000      8.4550000     10.4540000
     19     19      5      0.0000000     -0.1240000     10.7820000     10.4540000
     20     20      2      0.0000000     10.5790000      6.2450000     10.4060000
     21     21      1      0.0000000      8.4400000      4.2970000      8.3480000
     22     22      5      0.0000000     10.3330000      6.1570000      8.3480000
     23     23      5      0.0000000     10.5280000      4.1970000     10.5730000
     24     24      5      0.0000000      8.4370000      6.4590000     10.4950000
     25     25      2      0.0000000      6.2400000      6.3220000     10.4640000
     26     26      1      0.0000000      4.1420000      4.0680000      8.4430000
     27     27      5      0.0000000      6.4500000      6.2840000      8.4750000
     28     28      5      0.0000000      6.1540000      4.1370000     10.5110000
     29     29      5      0.0000000      4.2140000      6.2610000     10.3200000
     30     30      2      0.0000000      2.1640000      6.3300000     10.5070000
     31     31      1      0.0000000     -0.1190000      4.2470000      8.4460000
     32     32      5      0.0000000      1.9490000      6.2700000      8.4390000
     33     33      5      0.0000000      1.9080000      4.1610000     10.4830000
     34     34      5      0.0000000      0.0570000      6.2300000     10.4680000
     35     35      2      0.0000000     10.6540000      2.1340000     10.5310000
     36     36      1      0.0000000      8.5730000      0.4180000      8.4340000
     37     37      5      0.0000000     10.5840000      2.2010000      8.5010000
     38     38      5      0.0000000     10.5440000      0.0160000     10.5030000
     39     39      5      0.0000000      8.3610000      2.2360000     10.3670000
     40     40      2      0.0000000      6.2960000      2.2090000     10.6000000
     41     41      1      0.0000000      4.3540000      0.0600000      8.5590000
     42     42      5      0.0000000      6.3430000      2.1420000      8.4100000
     43     43      5      0.0000000      6.3610000      0.0700000     10.5510000
     44     44      5      0.0000000      4.2430000      2.2820000     10.6280000
     45     45      2      0.0000000      2.1560000      2.0420000     10.5640000
     46     46      1      0.0000000      0.3030000     -0.0130000      8.4360000
     47     47      5      0.0000000      2.3070000      1.9150000      8.3690000
     48     48      5      0.0000000      2.4610000      0.0250000     10.6440000
     49     49      5      0.0000000      0.0580000      1.9300000     10.4510000
     50     50      2      0.0000000     10.3880000     10.4660000      6.2750000
     51     51      1      0.0000000      8.4930000      8.4060000      4.1620000
     52     52      5      0.0000000     10.4440000     10.4680000      4.1610000
     53     53      5      0.0000000     10.4950000      8.2990000      6.3390000
     54     54      5      0.0000000      8.4130000     10.4330000      6.1420000
     55     55      2      0.0000000      6.2590000     10.3860000      6.1860000
     56     56      1      0.0000000      4.2460000      8.5080000      4.1890000
     57     57      5      0.0000000      6.2260000     10.3600000      4.1800000
     58     58      5      0.0000000      6.4700000      8.3230000      6.2100000
     59     59      5      0.0000000      4.1020000     10.3570000      6.2780000
     60     60      2      0.0000000      2.0660000     10.4510000      6.2190000
     61     61      1      0.0000000     -0.0390000      8.4950000      4.1490000
     62     62      5      0.0000000      1.9070000     10.4060000      4.1000000
     63     63      5      0.0000000      1.9900000      8.3190000      6.2690000
     64     64      5      0.0000000     -0.0160000     10.4670000      6.3640000
     65     65      2      0.0000000     10.4330000      6.2470000      6.1860000
     66     66      1      0.0000000      8.4050000      4.1810000      3.9880000
     67     67      5      0.0000000     10.5180000      6.2360000      4.1420000
     68     68      5      0.0000000     10.6050000      4.1580000      5.9560000
     69     69      5      0.0000000      8.4650000      6.2600000      6.1540000
     70     70      2      0.0000000      6.4110000      6.2700000      6.4590000
     71     71      1      0.0000000      4.1700000      4.1320000      4.1700000
     72     72      5      0.0000000      6.2260000      6.4600000      4.2160000
     73     73      5      0.0000000      6.1750000      4.1550000      6.3920000
     74     74      2      0.0000000      2.0990000      6.2780000      6.4670000
     75     75      1      0.0000000      0.1150000      4.1140000      4.2770000
     76     76      5      0.0000000      2.1240000      6.1110000      4.3660000
     77     77      5      0.0000000      2.2300000      4.0150000      6.3500000
     78     78      5      0.0000000     -0.0590000      6.1800000      6.3670000
     79     79      2      0.0000000     10.5960000      2.2160000      6.1900000
     80     80      1      0.0000000      8.4660000      0.1130000      4.0890000
     81     81      5      0.0000000     10.4620000      2.0910000      4.1210000
     82     82      5      0.0000000     10.5490000      0.1620000      6.2650000
     83     83      5      0.0000000      8.3990000      2.2160000      6.2170000
     84     84      2      0.0000000      6.2950000      2.1070000      6.3630000
     85     85      1      0.0000000      4.2160000     -0.0850000      4.4070000
     86     86      5      0.0000000      6.3420000      2.0590000      4.2030000
     87     87      5      0.0000000      6.2510000      0.0590000      6.4780000
     88     88      5      0.0000000      4.2350000      1.9980000      6.2920000
     89     89      2      0.0000000      2.2040000      2.0970000      6.3160000
     90     90      1      0.0000000      0.1120000      0.2690000      4.2270000
     91     91      5      0.0000000      1.9990000      2.1000000      4.1970000
     92     92      5      0.0000000      2.2630000      0.0300000      6.2870000
     93     93      5      0.0000000      0.1840000      2.0430000      6.3390000
     94     94      2      0.0000000     10.5010000     10.5060000      2.0650000
     95     95      1      0.0000000      8.4270000      8.3890000      0.0570000
     96     96      5      0.0000000     10.2040000     10.4740000      0.1220000
     97     97      5      0.0000000     10.6250000      8.3800000      2.1950000
     98     98      5      0.0000000      8.3210000     10.5140000      2.1260000
     99     99      2      0.0000000      6.2310000     10.4980000      2.0620000
    100    100      1      0.0000000      4.2180000      8.2880000      0.1770000
    101    101      5      0.0000000      6.1660000     10.5080000      0.0870000
    102    102      5      0.0000000      6.4380000      8.4020000      1.8720000
    103    103      5      0.0000000      4.1220000     10.3710000      2.0030000
    104    104      2      0.0000000      1.9890000     10.3360000      2.0080000
    105    105      1      0.0000000      0.1090000      8.2710000     -0.0500000
    106    106      5      0.0000000      1.8820000     10.2030000     -0.0760000
    107    107      5      0.0000000      2.0500000      8.3490000      2.1240000
    108    108      5      0.0000000     -0.0830000     10.3220000      2.0220000
    109    109      2      0.0000000     10.5260000      6.2750000      2.1010000
    110    110      1      0.0000000      8.5650000      4.1120000     -0.0040000
    111    111      5      0.0000000     10.6920000      6.2360000      0.1190000
    112    112      5      0.0000000     10.4930000      4.1260000      2.0700000
    113    113      5      0.0000000      8.4810000      6.2390000      1.9860000
    114    114      2      0.0000000      6.2810000      6.3110000      2.1180000
    115    115      1      0.0000000      4.2160000      4.3650000      0.0200000
    116    116      5      0.0000000      6.2660000      6.2260000      0.0750000
    117    117      5      0.0000000      6.2550000      4.1360000      2.2220000
    118    118      5      0.0000000      4.0890000      6.2360000      1.9890000
    119    119      2      0.0000000      2.0420000      6.1850000      2.2260000
    120    120      1      0.0000000      0.2230000      4.2130000     -0.1240000
    121    121      5      0.0000000      2.1800000      6.2800000     -0.0540000
    122    122      5      0.0000000      2.1140000      4.0250000      2.1770000
    123    123      5      0.0000000      0.0890000      6.1190000      2.0170000
    124    124      2      0.0000000     10.4890000      2.1470000      2.1610000
    125    125      1      0.0000000      8.3790000     -0.1150000     -0.0670000
    126    126      5      0.0000000     10.5720000      2.0400000      0.0430000
    127    127      5      0.0000000     10.6700000     -0.0830000      2.1250000
    128    128      5      0.0000000      8.4150000      2.1690000      2.0750000
    129    129      2      0.0000000      6.2660000      2.1120000      2.0820000
    130    130      1      0.0000000      4.3000000      0.0060000      0.2020000
    131    131      5      0.0000000      6.3380000      2.1740000      0.0030000
    132    132      5      0.0000000      6.3860000     -0.1250000      2.1850000
    133    133      5      0.0000000      4.2360000      1.9880000      2.1160000
    134    134      5      0.0000000      4.2240000      6.3490000      6.4620000
    135    135      2      0.0000000     14.6350000     14.6640000     14.7640000
    136    136      1      0.0000000     12.5040000     12.5910000     12.7310000
    137    137      5      0.0000000     14.5680000     14.6210000     12.7630000
    138    138      5      0.0000000     14.6670000     12.4950000     14.7750000
    139    139      5      0.0000000     12.6180000     14.7420000     14.8110000
    140    140      2      0.0000000     23.2040000     23.0210000     23.0850000
    141    141      1      0.0000000     21.0740000     20.9720000     21.0840000
    142    142      5      0.0000000     23.2590000     22.9340000     21.1390000
    143    143      5      0.0000000     23.1830000     20.8800000     23.0080000
    144    144      5      0.0000000     21.1590000     23.0260000     23.1110000
    145    145      2      0.0000000     19.0100000     22.9780000     23.1800000
    146    146      1      0.0000000     16.6770000     21.0090000     20.9750000
    147    147      5      0.0000000     18.9680000     23.2880000     21.1160000
    148    148      5      0.0000000     18.9360000     20.9650000     23.1720000
    149    149      5      0.0000000     16.8000000     23.1240000     23.1430000
    150    150      2      0.0000000     14.7400000     23.1340000     23.0990000
    151    151      1      0.0000000     12.6760000     21.0110000     20.8790000
    152    152      5      0.0000000     14.6320000     23.1150000     20.8480000
    153    153      5      0.0000000     14.6340000     20.9740000     23.0550000
    154    154      5      0.0000000     12.6630000     23.2340000     23.0930000
    155    155      2      0.0000000     23.1120000     18.8370000     23.2380000
    156    156      1      0.0000000     21.0170000     16.6980000     20.7310000
    157    157      5      0.0000000     23.1770000     18.5470000     20.9470000
    158    158      5      0.0000000     23.0920000     16.7090000     23.3870000
    159    159      5      0.0000000     21.0030000     18.8060000     23.2580000
    160    160      2      0.0000000     18.8960000     18.7670000     23.0870000
    161    161      1      0.0000000     16.8370000     16.7860000     20.8290000
    162    162      5      0.0000000     18.8600000     18.9050000     21.1090000
    163    163      5      0.0000000     18.8260000     16.7320000     22.9130000
    164    164      5      0.0000000     16.8030000     18.8380000     23.1240000
    165    165      2      0.0000000     14.7310000     18.9170000     23.0430000
    166    166      1      0.0000000     12.4540000     16.6380000     21.1250000
    167    167      5      0.0000000     14.7950000     18.9640000     20.9160000
    168    168      5      0.0000000     14.6700000     16.8280000     23.1370000
    169    169      5      0.0000000     12.6460000     18.7980000     22.9750000
    170    170      2      0.0000000     23.2980000     14.7390000     23.1070000
    171    171      1      0.0000000     20.9500000     12.6810000     21.0950000
    172    172      5      0.0000000     23.3130000     14.7780000     21.0070000
    173    173      5      0.0000000     23.3020000     12.6980000     23.2490000
    174    174      5      0.0000000     21.1010000     14.6280000     22.9110000
    175    175      2      0.0000000     18.9140000     14.6860000     23.1060000
    176    176      1      0.0000000     16.8550000     12.6620000     21.0390000
    177    177      5      0.0000000     18.8870000     14.5250000     21.0170000
    178    178      5      0.0000000     18.8190000     12.6100000     23.1320000
    179    179      5      0.0000000     16.8240000     14.7150000     23.0720000
    180    180      2      0.0000000     14.6930000     14.7310000     23.0810000
    181    181      1      0.0000000     12.5610000     12.3460000     20.9260000
    182    182      5      0.0000000     14.7110000     14.5770000     21.0790000
    183    183      5      0.0000000     14.8930000     12.5860000     23.1750000
    184    184      5      0.0000000     12.6330000     14.6660000     23.2380000
    185    185      2      0.0000000     23.2730000     22.8800000     19.0630000
    186    186      1      0.0000000     21.1330000     20.9100000     17.1600000
    187    187      5      0.0000000     23.4780000     22.9210000     16.8490000
    188    188      5      0.0000000     23.1050000     20.8860000     19.0510000
    189    189      5      0.0000000     21.1660000     22.7340000     19.0560000
    190    190      2      0.0000000     18.9810000     23.0710000     19.1410000
    191    191      1      0.0000000     16.8040000     20.7720000     16.9170000
    192    192      5      0.0000000     18.9550000     23.2740000     16.8360000
    193    193      5      0.0000000     19.0050000     21.0550000     19.0820000
    194    194      5      0.0000000     16.9120000     22.9890000     19.0370000
    195    195      2      0.0000000     14.6920000     22.9210000     18.8180000
    196    196      1      0.0000000     12.5610000     20.8860000     16.7670000
    197    197      5      0.0000000     14.7670000     22.9310000     16.7430000
    198    198      5      0.0000000     14.7490000     20.9290000     18.7470000
    199    199      5      0.0000000     12.6670000     22.7580000     19.0320000
    200    200      2      0.0000000     23.1490000     18.7040000     18.9560000
    201    201      1      0.0000000     21.0750000     16.7650000     16.7830000
    202    202      5      0.0000000     23.3420000     18.7200000     16.8050000
    203    203      5      0.0000000     23.3290000     16.6950000     18.9600000
    204    204      5      0.0000000     21.1450000     18.6690000     18.9550000
    205    205      2      0.0000000     18.9970000     18.8150000     18.9400000
    206    206      1      0.0000000     17.0230000     16.6990000     16.8860000
    207    207      5      0.0000000     19.0870000     18.6460000     17.0000000
    208    208      5      0.0000000     19.0040000     16.7020000     19.1200000
    209    209      5      0.0000000     16.8850000     18.7800000     18.8930000
    210    210      2      0.0000000     14.6410000     18.7300000     18.9420000
    211    211      1      0.0000000     12.6840000     16.7510000     17.0190000
    212    212      5      0.0000000     14.6210000     18.9370000     16.8480000
    213    213      5      0.0000000     14.7160000     16.7630000     19.0380000
    214    214      5      0.0000000     12.5630000     18.5070000     19.0290000
    215    215      2      0.0000000     23.2930000     14.6160000     18.8770000
    216    216      1      0.0000000     21.2510000     12.6300000     17.0690000
    217    217      5      0.0000000     23.3110000     14.6750000     16.7540000
    218    218      5      0.0000000     23.2730000     12.4970000     18.8020000
    219    219      5      0.0000000     21.0790000     14.5790000     18.8600000
    220    220      2      0.0000000     18.9110000     14.6990000     18.9190000
    221    221      1      0.0000000     16.9390000     12.4820000     16.8010000
    222    222      5      0.0000000     18.8650000     14.8740000     16.6730000
    223    223      5      0.0000000     18.9830000     12.6400000     18.9080000
    224    224      5      0.0000000     16.8460000     14.8640000     18.8820000
    225    225      2      0.0000000     14.6990000     14.6430000     18.9980000
    226    226      1      0.0000000     12.8720000     12.4330000     16.9290000
    227    227      5      0.0000000     14.8830000     14.6060000     16.8220000
    228    228      5      0.0000000     14.7960000     12.5970000     18.9490000
    229    229      5      0.0000000     12.7290000     14.6930000     18.9610000
    230    230      2      0.0000000     23.3390000     22.9810000     14.7930000
    231    231      1      0.0000000     21.0910000     21.0030000     12.6670000
    232    232      5      0.0000000     23.1850000     22.8730000     12.7610000
    233    233      5      0.0000000     23.4490000     20.7900000     14.7220000
    234    234      5      0.0000000     21.2570000     23.0710000     14.9800000
    235    235      2      0.0000000     19.0690000     23.1050000     14.7330000
    236    236      1      0.0000000     16.9100000     20.8910000     12.7400000
    237    237      5      0.0000000     19.1180000     22.9180000     12.7190000
    238    238      5      0.0000000     19.0430000     20.9060000     14.9030000
    239    239      5      0.0000000     16.8670000     23.3910000     14.6800000
    240    240      2      0.0000000     14.7850000     23.0800000     14.6980000
    241    241      1      0.0000000     12.9100000     21.0820000     12.6170000
    242    242      5      0.0000000     14.7960000     23.1700000     12.6160000
    243    243      5      0.0000000     14.9840000     20.8740000     14.5910000
    244    244      5      0.0000000     12.6730000     22.9270000     14.4640000
    245    245      2      0.0000000     23.2410000     18.8130000     14.5980000
    246    246      1      0.0000000     21.0320000     16.8230000     12.7090000
    247    247      5      0.0000000     23.0690000     18.7120000     12.6280000
    248    248      5      0.0000000     23.2120000     16.8330000     14.7420000
    249    249      5      0.0000000     21.1280000     18.9600000     14.8100000
    250    250      2      0.0000000     19.0840000     18.8850000     14.8410000
    251    251      1      0.0000000     16.9160000     16.7620000     12.6700000
    252    252      5      0.0000000     18.9350000     18.9910000     12.7550000
    253    253      5      0.0000000     19.1020000     16.8720000     14.8140000
    254    254      5      0.0000000     16.8780000     18.8960000     14.8730000
    255    255      2      0.0000000     14.6530000     18.8960000     14.7600000
    256    256      1      0.0000000     12.5310000     16.5560000     12.5730000
    257    257      5      0.0000000     14.8250000     18.7680000     12.6490000
    258    258      5      0.0000000     14.5990000     16.7570000     14.7050000
    259    259      5      0.0000000     12.6290000     18.9890000     14.8210000
    260    260      2      0.0000000     23.2830000     14.7380000     14.6430000
    261    261      1      0.0000000     21.1510000     12.6120000     12.8060000
    262    262      5      0.0000000     23.4100000     14.9210000     12.5270000
    263    263      5      0.0000000     23.1850000     12.6140000     14.6940000
    264    264      5      0.0000000     21.1860000     14.6210000     14.5590000
    265    265      2      0.0000000     19.0290000     14.7120000     14.7000000
    266    266      1      0.0000000     16.8290000     12.4180000     12.7150000
    267    267      5      0.0000000     19.1480000     14.7920000     12.6520000
    268    268      5      0.0000000     18.9750000     12.6510000     14.7130000
    269    269      5      0.0000000     16.8260000     14.6610000     14.6220000
    270    270      2      0.0000000      2.1400000     14.6990000     14.7940000
    271    271      1      0.0000000     -0.1530000     12.6880000     12.6140000
    272    272      5      0.0000000      2.0310000     14.6250000     12.5920000
    273    273      5      0.0000000      1.8750000     12.5450000     14.5400000
    274    274      5      0.0000000      0.0090000     14.6920000     14.7560000
    275    275      2      0.0000000     10.5680000     23.0410000     23.1560000
    276    276      1      0.0000000      8.4420000     20.8280000     21.1280000
    277    277      5      0.0000000     10.5710000     22.8990000     21.0720000
    278    278      5      0.0000000     10.6350000     20.9600000     23.3770000
    279    279      5      0.0000000      8.5360000     22.9770000     23.1470000
    280    280      2      0.0000000      6.3600000     22.9560000     23.0780000
    281    281      1      0.0000000      4.1190000     20.9410000     21.1860000
    282    282      5      0.0000000      6.4870000     23.0400000     21.1050000
    283    283      5      0.0000000      6.3300000     20.8840000     23.0280000
    284    284      5      0.0000000      4.1780000     22.8260000     22.9810000
    285    285      2      0.0000000      1.9550000     23.1210000     23.1760000
    286    286      1      0.0000000      0.1670000     20.8490000     21.0410000
    287    287      5      0.0000000      2.2030000     23.0420000     21.0590000
    288    288      5      0.0000000      1.8860000     21.0730000     23.1640000
    289    289      5      0.0000000     -0.0060000     23.1130000     23.2120000
    290    290      2      0.0000000     10.7130000     18.8650000     23.2780000
    291    291      1      0.0000000      8.5160000     16.7560000     21.2340000
    292    292      5      0.0000000     10.3760000     19.0110000     21.0850000
    293    293      5      0.0000000     10.5300000     16.7340000     23.1510000
    294    294      5      0.0000000      8.4590000     18.9190000     23.1580000
    295    295      2      0.0000000      6.2300000     18.8420000     23.2090000
    296    296      1      0.0000000      4.2870000     16.6550000     21.0500000
    297    297      5      0.0000000      6.2260000     18.6010000     21.1520000
    298    298      5      0.0000000      6.1490000     16.7470000     23.1830000
    299    299      5      0.0000000      4.1650000     18.9590000     23.3640000
    300    300      2      0.0000000      1.9820000     18.9220000     23.2290000
    301    301      1      0.0000000      0.0990000     16.6840000     21.0990000
    302    302      5      0.0000000      1.8810000     18.9590000     21.1150000
    303    303      5      0.0000000      2.1980000     16.7280000     23.3160000
    304    304      5      0.0000000     -0.1790000     18.6850000     23.2670000
    305    305      2      0.0000000     10.4650000     14.6650000     23.2000000
    306    306      1      0.0000000      8.2400000     12.2590000     21.1100000
    307    307      5      0.0000000     10.6250000     14.6170000     21.1220000
    308    308      5      0.0000000     10.4390000     12.4390000     23.3660000
    309    309      5      0.0000000      8.3410000     14.7160000     23.1500000
    310    310      2      0.0000000      6.2300000     14.7050000     23.1020000
    311    311      1      0.0000000      4.1640000     12.3460000     20.8940000
    312    312      5      0.0000000      6.3160000     14.5560000     21.0020000
    313    313      5      0.0000000      6.3620000     12.4320000     23.2750000
    314    314      5      0.0000000      4.2140000     14.5150000     23.1900000
    315    315      2      0.0000000      2.1390000     14.4820000     23.2110000
    316    316      1      0.0000000     -0.1240000     12.4730000     21.0590000
    317    317      5      0.0000000      2.2160000     14.6420000     21.0570000
    318    318      5      0.0000000      1.9830000     12.4640000     23.1680000
    319    319      5      0.0000000     -0.1040000     14.7350000     23.2280000
    320    320      2      0.0000000     10.5880000     22.9520000     18.9470000
    321    321      1      0.0000000      8.4530000     21.0160000     16.7110000
    322    322      5      0.0000000     10.7720000     22.9620000     16.7270000
    323    323      5      0.0000000     10.6770000     20.8830000     18.8900000
    324    324      5      0.0000000      8.4850000     22.9230000     18.8980000
    325    325      2      0.0000000      6.3510000     22.9870000     18.9760000
    326    326      1      0.0000000      4.3390000     20.9630000     16.9530000
    327    327      5      0.0000000      6.4920000     22.9460000     16.9420000
    328    328      5      0.0000000      6.2320000     20.7660000     19.0400000
    329    329      5      0.0000000      4.1640000     23.0610000     19.0560000
    330    330      2      0.0000000      2.1790000     23.0230000     19.0510000
    331    331      1      0.0000000     -0.2170000     20.6430000     16.7140000
    332    332      5      0.0000000      2.0720000     22.9640000     16.7820000
    333    333      5      0.0000000      2.0550000     20.9600000     19.0010000
    334    334      5      0.0000000     -0.0690000     23.1270000     19.1280000
    335    335      2      0.0000000     10.4210000     18.8010000     19.0380000
    336    336      1      0.0000000      8.2480000     16.4600000     16.8130000
    337    337      5      0.0000000     10.3250000     18.6280000     16.9320000
    338    338      5      0.0000000     10.5170000     16.6610000     19.0940000
    339    339      5      0.0000000      8.3760000     18.6950000     19.1700000
    340    340      2      0.0000000      6.3340000     18.7410000     18.9320000
    341    341      1      0.0000000      4.3080000     16.5160000     16.8890000
    342    342      5      0.0000000      6.5660000     18.8690000     16.8770000
    343    343      5      0.0000000      6.3310000     16.6310000     18.9140000
    344    344      5      0.0000000      4.1920000     18.6170000     18.9420000
    345    345      2      0.0000000      2.0760000     18.9040000     18.8450000
    346    346      1      0.0000000     -0.0780000     16.7820000     16.7620000
    347    347      5      0.0000000      2.1020000     18.8900000     16.8280000
    348    348      5      0.0000000      2.0200000     16.7560000     18.8570000
    349    349      5      0.0000000     -0.0330000     18.9910000     18.8540000
    350    350      2      0.0000000     10.5470000     14.5370000     18.9390000
    351    351      1      0.0000000      8.4000000     12.4480000     16.8150000
    352    352      5      0.0000000     10.4180000     14.7730000     16.7710000
    353    353      5      0.0000000     10.6500000     12.5700000     18.8790000
    354    354      5      0.0000000      8.4470000     14.4890000     19.0780000
    355    355      2      0.0000000      6.3830000     14.5100000     18.9330000
    356    356      1      0.0000000      4.2810000     12.3600000     16.6830000
    357    357      5      0.0000000      6.3770000     14.5630000     16.7570000
    358    358      5      0.0000000      6.5830000     12.4500000     18.9610000
    359    359      5      0.0000000      4.2340000     14.3170000     18.9780000
    360    360      2      0.0000000      2.1400000     14.4800000     18.9650000
    361    361      1      0.0000000     -0.1060000     12.6060000     16.5510000
    362    362      5      0.0000000      2.3290000     14.6220000     16.9240000
    363    363      5      0.0000000      2.2620000     12.2820000     19.1760000
    364    364      5      0.0000000      0.0450000     14.4740000     18.8550000
    365    365      2      0.0000000     10.6400000     22.9490000     14.6970000
    366    366      1      0.0000000      8.5140000     20.8490000     12.5930000
    367    367      5      0.0000000     10.6940000     22.9620000     12.5840000
    368    368      5      0.0000000     10.6070000     20.9660000     14.7470000
    369    369      5      0.0000000      8.5450000     22.9890000     14.7240000
    370    370      2      0.0000000      6.3970000     22.9000000     14.7690000
    371    371      1      0.0000000      4.2000000     21.0490000     12.5640000
    372    372      5      0.0000000      6.4370000     22.9920000     12.7100000
    373    373      5      0.0000000      6.4480000     20.9340000     14.9550000
    374    374      5      0.0000000      4.3780000     23.1390000     14.9990000
    375    375      2      0.0000000      2.1600000     22.9030000     14.8510000
    376    376      1      0.0000000     -0.0910000     20.8540000     12.6390000
    377    377      5      0.0000000      2.2800000     22.9510000     12.7890000
    378    378      5      0.0000000      2.2260000     20.8370000     14.7870000
    379    379      5      0.0000000      0.0970000     22.9080000     14.7050000
    380    380      2      0.0000000     10.5300000     18.8040000     14.7890000
    381    381      1      0.0000000      8.3540000     16.8730000     12.6050000
    382    382      5      0.0000000     10.5220000     18.8830000     12.5970000
    383    383      5      0.0000000     10.4410000     16.7860000     14.3550000
    384    384      5      0.0000000      8.4890000     18.9750000     14.6160000
    385    385      2      0.0000000      6.4160000     18.8240000     14.8620000
    386    386      1      0.0000000      4.3470000     16.6980000     12.6540000
    387    387      5      0.0000000      6.2910000     18.7880000     12.6760000
    388    388      5      0.0000000      6.3300000     16.6400000     14.9850000
    389    389      5      0.0000000      4.2810000     18.8000000     14.9530000
    390    390      2      0.0000000      2.2500000     18.8040000     14.7570000
    391    391      1      0.0000000      0.1310000     16.6200000     12.7720000
    392    392      5      0.0000000      2.2850000     18.8000000     12.6940000
    393    393      5      0.0000000      2.1060000     16.6880000     14.8160000
    394    394      5      0.0000000      0.0380000     18.8950000     14.4590000
    395    395      2      0.0000000     10.3680000     14.6800000     14.6960000
    396    396      1      0.0000000      8.3650000     12.6300000     12.5550000
    397    397      5      0.0000000     10.6750000     14.5550000     12.5750000
    398    398      5      0.0000000     10.4290000     12.5830000     14.5970000
    399    399      5      0.0000000      8.3830000     14.5170000     14.7850000
    400    400      2      0.0000000      6.3100000     14.6610000     14.7330000
    401    401      1      0.0000000      4.2950000     12.7710000     12.6150000
    402    402      5      0.0000000      6.2930000     14.8980000     12.5490000
    403    403      5      0.0000000      6.1050000     12.6380000     14.7550000
    404    404      5      0.0000000      4.1440000     14.6830000     14.5800000
    405    405      2      0.0000000     14.7550000      2.0980000     14.6580000
    406    406      1      0.0000000     12.8540000      0.0380000     12.5770000
    407    407      5      0.0000000     14.8310000      1.9960000     12.6380000
    408    408      5      0.0000000     14.5590000     -0.0460000     14.8370000
    409    409      5      0.0000000     12.6510000      2.1830000     14.6310000
    410    410      2      0.0000000     23.1470000     10.4820000     23.1590000
    411    411      1      0.0000000     21.1900000      8.5220000     21.0830000
    412    412      5      0.0000000     23.1600000     10.4950000     21.0200000
    413    413      5      0.0000000     23.0830000      8.4460000     23.3480000
    414    414      5      0.0000000     20.9810000     10.8070000     22.9860000
    415    415      2      0.0000000     18.9120000     10.5730000     23.1350000
    416    416      1      0.0000000     16.7270000      8.3250000     20.9750000
    417    417      5      0.0000000     18.8640000     10.3180000     21.0190000
    418    418      5      0.0000000     19.1930000      8.4900000     23.0000000
    419    419      5      0.0000000     16.7670000     10.3890000     23.2190000
    420    420      2      0.0000000     14.6070000     10.4870000     23.2260000
    421    421      1      0.0000000     12.5560000      8.3630000     21.1120000
    422    422      5      0.0000000     14.4110000     10.6490000     21.0500000
    423    423      5      0.0000000     14.6890000      8.5590000     23.0010000
    424    424      5      0.0000000     12.5620000     10.6070000     23.3820000
    425    425      2      0.0000000     23.2270000      6.4180000     23.2800000
    426    426      1      0.0000000     20.8680000      4.2080000     21.0890000
    427    427      5      0.0000000     23.3050000      6.4510000     21.1230000
    428    428      5      0.0000000     23.1770000      4.2280000     23.4190000
    429    429      5      0.0000000     21.2150000      6.2810000     23.2150000
    430    430      2      0.0000000     18.9170000      6.3200000     23.1140000
    431    431      1      0.0000000     16.9490000      4.2650000     20.9510000
    432    432      5      0.0000000     18.9590000      6.2620000     21.1160000
    433    433      5      0.0000000     18.7190000      4.1680000     23.1180000
    434    434      5      0.0000000     16.8380000      6.4360000     23.0300000
    435    435      2      0.0000000     14.7870000      6.3330000     23.2680000
    436    436      1      0.0000000     12.5380000      4.1400000     20.9650000
    437    437      5      0.0000000     14.5690000      6.1430000     21.2590000
    438    438      5      0.0000000     14.9520000      4.2080000     23.1090000
    439    439      5      0.0000000     12.5810000      6.3300000     23.4150000
    440    440      2      0.0000000     23.2230000      2.1970000     23.1660000
    441    441      1      0.0000000     21.1710000      0.1740000     21.0090000
    442    442      5      0.0000000     23.3660000      2.2620000     21.0750000
    443    443      5      0.0000000     23.0610000      0.1050000     23.2340000
    444    444      5      0.0000000     20.9850000      2.1780000     23.1030000
    445    445      2      0.0000000     18.8800000      2.0820000     23.1680000
    446    446      1      0.0000000     16.8000000      0.0280000     20.9250000
    447    447      5      0.0000000     19.0070000      1.9300000     20.9780000
    448    448      5      0.0000000     18.9210000      0.0300000     23.4340000
    449    449      5      0.0000000     16.8350000      1.9830000     22.8980000
    450    450      2      0.0000000     14.7650000      2.1410000     22.9680000
    451    451      1      0.0000000     12.5100000     -0.0250000     20.7880000
    452    452      5      0.0000000     14.3960000      2.1390000     20.9160000
    453    453      5      0.0000000     14.7380000     -0.0270000     23.0270000
    454    454      5      0.0000000     12.6160000      2.0520000     23.0360000
    455    455      2      0.0000000     23.2390000     10.4910000     18.8660000
    456    456      1      0.0000000     21.1260000      8.5300000     16.8960000
    457    457      5      0.0000000     23.1220000     10.3940000     16.7440000
    458    458      5      0.0000000     23.2910000      8.4480000     18.8170000
    459    459      5      0.0000000     21.1060000     10.5290000     19.0200000
    460    460      2      0.0000000     18.9590000     10.3980000     18.9350000
    461    461      1      0.0000000     17.0040000      8.1340000     16.8630000
    462    462      5      0.0000000     18.9260000     10.4730000     16.9310000
    463    463      5      0.0000000     18.9250000      8.2580000     18.8200000
    464    464      5      0.0000000     16.8320000     10.5480000     19.0420000
    465    465      2      0.0000000     14.7210000     10.5040000     19.0290000
    466    466      1      0.0000000     12.9530000      8.1390000     16.8690000
    467    467      5      0.0000000     14.8980000     10.3490000     16.9490000
    468    468      5      0.0000000     14.5290000      8.3360000     19.0670000
    469    469      5      0.0000000     12.7110000     10.4560000     18.8160000
    470    470      2      0.0000000     23.3510000      6.2780000     18.9340000
    471    471      1      0.0000000     20.9630000      4.2260000     16.9030000
    472    472      5      0.0000000     23.1880000      6.3090000     16.7750000
    473    473      5      0.0000000     23.1330000      4.3100000     18.9890000
    474    474      5      0.0000000     21.0580000      6.2330000     19.0070000
    475    475      2      0.0000000     19.0000000      6.2890000     18.9210000
    476    476      1      0.0000000     16.9980000      4.1010000     16.8430000
    477    477      5      0.0000000     19.0770000      6.1650000     16.8680000
    478    478      5      0.0000000     18.8410000      4.0700000     18.9670000
    479    479      5      0.0000000     16.8690000      6.2870000     18.8640000
    480    480      2      0.0000000     14.6800000      6.2180000     19.0660000
    481    481      1      0.0000000     12.6280000      3.9910000     16.7660000
    482    482      5      0.0000000     14.4260000      6.2670000     16.7820000
    483    483      5      0.0000000     14.8920000      4.0710000     18.9420000
    484    484      5      0.0000000     12.6560000      6.0900000     19.0940000
    485    485      2      0.0000000     23.2380000      2.1460000     18.9300000
    486    486      1      0.0000000     21.0360000      0.1750000     16.9320000
    487    487      5      0.0000000     23.2300000      2.2200000     16.8490000
    488    488      5      0.0000000     23.1990000     -0.0580000     18.9480000
    489    489      5      0.0000000     21.0850000      2.1870000     19.0290000
    490    490      2      0.0000000     19.0430000      2.0060000     19.0060000
    491    491      1      0.0000000     17.1410000     -0.0140000     16.8310000
    492    492      5      0.0000000     19.0980000      1.9800000     16.8730000
    493    493      5      0.0000000     19.1050000      0.0280000     18.9780000
    494    494      5      0.0000000     16.8530000      1.8780000     18.9290000
    495    495      2      0.0000000     14.7360000      2.0210000     18.8540000
    496    496      1      0.0000000     12.7390000      0.1900000     16.5490000
    497    497      5      0.0000000     14.7330000      2.0650000     16.7350000
    498    498      5      0.0000000     14.5800000     -0.0310000     18.8760000
    499    499      5      0.0000000     12.6880000      1.9690000     18.8400000
    500    500      2      0.0000000     23.1520000     10.4440000     14.6990000
    501    501      1      0.0000000     21.1560000      8.4120000     12.4510000
    502    502      5      0.0000000     23.1200000     10.6670000     12.5340000
    503    503      5      0.0000000     23.2810000      8.3210000     14.6720000
    504    504      5      0.0000000     21.0520000     10.3990000     14.7060000
    505    505      2      0.0000000     19.0590000     10.4150000     14.7000000
    506    506      1      0.0000000     16.8940000      8.3010000     12.6390000
    507    507      5      0.0000000     19.0750000     10.3070000     12.5500000
    508    508      5      0.0000000     19.0550000      8.4480000     14.8780000
    509    509      5      0.0000000     16.9470000     10.4700000     14.6650000
    510    510      2      0.0000000     14.8560000     10.3730000     14.7200000
    511    511      1      0.0000000     12.8320000      8.6160000     12.7910000
    512    512      5      0.0000000     14.7120000     10.3860000     12.7310000
    513    513      5      0.0000000     14.9910000      8.3320000     14.8470000
    514    514      5      0.0000000     12.6190000     10.3670000     14.8400000
    515    515      2      0.0000000     23.2020000      6.2190000     14.7510000
    516    516      1      0.0000000     20.9840000      4.1780000     12.5660000
    517    517      5      0.0000000     23.3790000      6.1970000     12.5300000
    518    518      5      0.0000000     23.3100000      4.2180000     14.6990000
    519    519      5      0.0000000     21.2000000      6.2300000     14.5160000
    520    520      2      0.0000000     19.1770000      6.2340000     14.8290000
    521    521      1      0.0000000     16.9790000      4.2880000     12.6880000
    522    522      5      0.0000000     18.9120000      6.3560000     12.7870000
    523    523      5      0.0000000     19.1300000      4.0920000     14.9060000
    524    524      5      0.0000000     16.8550000      6.0790000     14.9760000
    525    525      2      0.0000000     14.7550000      6.2330000     14.7990000
    526    526      1      0.0000000     12.7070000      4.2790000     12.7210000
    527    527      5      0.0000000     14.9050000      6.2400000     12.5310000
    528    528      5      0.0000000     14.7720000      4.1190000     14.7030000
    529    529      5      0.0000000     12.7590000      6.4940000     14.6850000
    530    530      2      0.0000000     23.1950000      2.0510000     14.7280000
    531    531      1      0.0000000     21.3260000      0.0970000     12.6890000
    532    532      5      0.0000000     23.3420000      2.1650000     12.6770000
    533    533      5      0.0000000     23.0910000     -0.0950000     14.8260000
    534    534      5      0.0000000     21.1230000      2.1000000     14.6100000
    535    535      2      0.0000000     19.0570000      2.1090000     14.7180000
    536    536      1      0.0000000     16.9410000      0.1110000     12.5720000
    537    537      5      0.0000000     18.8560000      2.0680000     12.6160000
    538    538      5      0.0000000     19.0350000      0.1630000     14.5890000
    539    539      5      0.0000000     16.8030000      2.1180000     14.7520000
    540    540      2      0.0000000      2.2130000      2.1630000     14.6910000
    541    541      1      0.0000000      0.0200000     -0.0010000     12.5070000
    542    542      5      0.0000000      2.0530000      2.0580000     12.5870000
    543    543      5      0.0000000      2.2630000      0.0380000     14.7830000
    544    544      5      0.0000000     -0.0250000      2.0260000     14.6270000
    545    545      2      0.0000000     10.5130000     10.4940000     23.3160000
    546    546      1      0.0000000      8.4910000      8.2700000     21.2320000
    547    547      5      0.0000000     10.6870000     10.4050000     20.9680000
    548    548      5      0.0000000     10.3010000      8.2990000     23.3560000
    549    549      5      0.0000000      8.4300000     10.4870000     23.1250000
    550    550      2      0.0000000      6.2530000     10.3250000     23.2380000
    551    551      1      0.0000000      4.2750000      8.3390000     21.0570000
    552    552      5      0.0000000      6.2560000     10.4100000     21.0470000
    553    553      5      0.0000000      6.3980000      8.4020000     23.1430000
    554    554      5      0.0000000      4.1780000     10.2110000     23.2030000
    555    555      2      0.0000000      2.0630000     10.3760000     23.1090000
    556    556      1      0.0000000     -0.1590000      8.4790000     20.8420000
    557    557      5      0.0000000      2.3810000     10.2160000     20.8660000
    558    558      5      0.0000000      2.0690000      8.4260000     23.1670000
    559    559      5      0.0000000     -0.1040000     10.3260000     23.0380000
    560    560      2      0.0000000     10.5230000      6.2220000     23.2760000
    561    561      1      0.0000000      8.3700000      4.2060000     20.9530000
    562    562      5      0.0000000     10.4140000      6.1360000     21.1750000
    563    563      5      0.0000000     10.4630000      4.0890000     23.1910000
    564    564      5      0.0000000      8.3970000      6.2230000     23.2820000
    565    565      2      0.0000000      6.2740000      6.2710000     23.2650000
    566    566      1      0.0000000      4.3360000      4.1150000     21.1560000
    567    567      5      0.0000000      6.3650000      6.3590000     21.0100000
    568    568      5      0.0000000      6.2260000      4.2670000     23.3010000
    569    569      5      0.0000000      4.1690000      6.3590000     23.0960000
    570    570      2      0.0000000      2.0420000      6.3270000     23.1630000
    571    571      1      0.0000000     -0.0920000      4.3420000     21.2140000
    572    572      5      0.0000000      2.2540000      6.2630000     21.0240000
    573    573      5      0.0000000      2.0220000      4.1820000     23.2850000
    574    574      5      0.0000000     -0.0480000      6.3350000     23.1660000
    575    575      2      0.0000000     10.5390000      2.0280000     23.0260000
    576    576      1      0.0000000      8.4130000     -0.1130000     20.9830000
    577    577      5      0.0000000     10.6250000      1.9850000     21.0110000
    578    578      5      0.0000000     10.2680000      0.0860000     23.0070000
    579    579      5      0.0000000      8.4460000      2.1180000     23.0170000
    580    580      2      0.0000000      6.4020000      2.2050000     23.1380000
    581    581      1      0.0000000      4.2150000     -0.0040000     20.9800000
    582    582      5      0.0000000      6.3270000      2.0330000     20.9690000
    583    583      5      0.0000000      6.3520000     -0.1280000     23.2550000
    584    584      5      0.0000000      4.2270000      2.1620000     23.0740000
    585    585      2      0.0000000      2.2050000      2.0750000     23.2970000
    586    586      1      0.0000000      0.1430000      0.0050000     20.9040000
    587    587      5      0.0000000      2.1200000      2.0790000     21.1340000
    588    588      5      0.0000000      2.1160000     -0.0100000     23.1290000
    589    589      5      0.0000000     -0.0050000      2.3310000     23.2460000
    590    590      2      0.0000000     10.5510000     10.4430000     18.8140000
    591    591      1      0.0000000      8.5750000      8.4140000     16.5840000
    592    592      5      0.0000000     10.6250000     10.4190000     16.7060000
    593    593      5      0.0000000     10.5740000      8.3280000     19.0350000
    594    594      5      0.0000000      8.5030000     10.4360000     18.8660000
    595    595      2      0.0000000      6.4270000     10.4650000     18.9670000
    596    596      1      0.0000000      4.1590000      8.1670000     16.6730000
    597    597      5      0.0000000      6.5020000     10.3360000     16.7760000
    598    598      5      0.0000000      6.4390000      8.3420000     19.0100000
    599    599      5      0.0000000      4.3590000     10.5150000     18.6820000
    600    600      2      0.0000000      2.2530000     10.3190000     18.8350000
    601    601      1      0.0000000     -0.0240000      8.3720000     16.6540000
    602    602      5      0.0000000      2.0630000     10.4180000     16.6260000
    603    603      5      0.0000000      2.2010000      8.3080000     18.8080000
    604    604      5      0.0000000     -0.0420000     10.4230000     18.9440000
    605    605      2      0.0000000     10.5340000      6.1990000     18.9320000
    606    606      1      0.0000000      8.6330000      4.2810000     16.8530000
    607    607      5      0.0000000     10.6370000      6.2260000     16.8900000
    608    608      5      0.0000000     10.5990000      4.2110000     18.8640000
    609    609      5      0.0000000      8.4340000      6.0920000     18.8840000
    610    610      2      0.0000000      6.4080000      6.3600000     18.8980000
    611    611      1      0.0000000      4.3820000      3.9990000     16.7980000
    612    612      5      0.0000000      6.5920000      6.4870000     16.7030000
    613    613      5      0.0000000      6.2970000      4.2470000     18.8870000
    614    614      5      0.0000000      4.2810000      6.3030000     18.7590000
    615    615      2      0.0000000      2.2500000      6.2810000     18.9260000
    616    616      1      0.0000000     -0.0110000      4.2610000     16.6410000
    617    617      5      0.0000000      2.0360000      6.2980000     16.8280000
    618    618      5      0.0000000      2.1560000      4.2660000     18.9800000
    619    619      5      0.0000000     -0.0150000      6.0510000     19.0570000
    620    620      2      0.0000000     10.5090000      2.0440000     18.9700000
    621    621      1      0.0000000      8.5410000     -0.1120000     16.7470000
    622    622      5      0.0000000     10.4170000      2.0620000     16.7980000
    623    623      5      0.0000000     10.5150000     -0.0300000     18.8700000
    624    624      5      0.0000000      8.4860000      2.1000000     19.0570000
    625    625      2      0.0000000      6.4090000      2.0990000     18.8900000
    626    626      1      0.0000000      4.1340000      0.0840000     16.8490000
    627    627      5      0.0000000      6.3810000      2.0440000     16.8580000
    628    628      5      0.0000000      6.4800000     -0.0900000     18.8640000
    629    629      5      0.0000000      4.2980000      2.1300000     19.0200000
    630    630      2      0.0000000      2.1480000      2.2650000     19.0330000
    631    631      1      0.0000000     -0.0020000     -0.2300000     16.7490000
    632    632      5      0.0000000      2.0890000      2.3300000     16.9250000
    633    633      5      0.0000000      2.2950000      0.0420000     18.8170000
    634    634      5      0.0000000     -0.0900000      2.0640000     18.9640000
    635    635      2      0.0000000     10.6050000     10.3960000     14.6420000
    636    636      1      0.0000000      8.4380000      8.3640000     12.4610000
    637    637      5      0.0000000     10.6360000     10.3840000     12.5790000
    638    638      5      0.0000000     10.5030000      8.3180000     14.6420000
    639    639      5      0.0000000      8.4740000     10.3630000     14.5220000
    640    640      2      0.0000000      6.3640000     10.3930000     14.7100000
    641    641      1      0.0000000      4.3410000      8.4090000     12.6890000
    642    642      5      0.0000000      6.3300000     10.4570000     12.6710000
    643    643      5      0.0000000      6.2970000      8.3860000     14.5940000
    644    644      5      0.0000000      4.3230000     10.2780000     14.7200000
    645    645      2      0.0000000      2.0220000     10.4840000     14.5310000
    646    646      1      0.0000000     -0.0620000      8.3450000     12.4370000
    647    647      5      0.0000000      2.2520000     10.4510000     12.5110000
    648    648      5      0.0000000      1.9080000      8.3050000     14.5220000
    649    649      5      0.0000000     -0.1360000     10.6410000     14.7450000
    650    650      2      0.0000000     10.5940000      6.3140000     14.6170000
    651    651      1      0.0000000      8.4860000      4.1580000     12.4260000
    652    652      5      0.0000000     10.8350000      6.0780000     12.4780000
    653    653      5      0.0000000     10.6810000      4.1430000     14.7550000
    654    654      5      0.0000000      8.4600000      6.1690000     14.3330000
    655    655      2      0.0000000      6.3360000      6.2230000     14.6820000
    656    656      1      0.0000000      4.1260000      4.2430000     12.4770000
    657    657      5      0.0000000      6.0650000      6.2280000     12.5090000
    658    658      5      0.0000000      6.3230000      4.1760000     14.8500000
    659    659      5      0.0000000      4.1810000      6.3530000     14.7430000
    660    660      2      0.0000000      2.1090000      6.2200000     14.6840000
    661    661      1      0.0000000     -0.0380000      4.1220000     12.6640000
    662    662      5      0.0000000      2.2210000      6.2830000     12.5520000
    663    663      5      0.0000000      2.3740000      4.2370000     14.4760000
    664    664      5      0.0000000      0.0690000      6.1520000     14.8170000
    665    665      2      0.0000000     10.5270000      2.0640000     14.7240000
    666    666      1      0.0000000      8.5970000     -0.0500000     12.7100000
    667    667      5      0.0000000     10.5130000      2.1250000     12.6070000
    668    668      5      0.0000000     10.6880000      0.0200000     14.6670000
    669    669      5      0.0000000      8.5180000      2.1410000     14.6990000
    670    670      2      0.0000000      6.3670000      2.0600000     14.8270000
    671    671      1      0.0000000      4.2810000      0.1580000     12.7120000
    672    672      5      0.0000000      6.2610000      2.2410000     12.7590000
    673    673      5      0.0000000      6.4340000     -0.1120000     14.7310000
    674    674      5      0.0000000      4.2850000      2.2090000     14.9240000
    675    675      2      0.0000000     14.7090000     14.5280000      2.1780000
    676    676      1      0.0000000     12.6290000     12.8270000      0.1020000
    677    677      5      0.0000000     14.8760000     14.6970000      0.0400000
    678    678      5      0.0000000     14.7930000     12.5570000      2.1870000
    679    679      5      0.0000000     12.5050000     14.5430000      2.1920000
    680    680      2      0.0000000     23.2610000     23.0720000     10.5080000
    681    681      1      0.0000000     21.2230000     20.8700000      8.4400000
    682    682      5      0.0000000     23.0810000     23.2470000      8.5220000
    683    683      5      0.0000000     23.4250000     20.9850000     10.3330000
    684    684      5      0.0000000     21.2040000     22.8560000     10.5520000
    685    685      2      0.0000000     19.1190000     23.1450000     10.6290000
    686    686      1      0.0000000     17.0600000     21.1960000      8.6440000
    687    687      5      0.0000000     18.9740000     23.0360000      8.4720000
    688    688      5      0.0000000     18.9140000     20.8990000     10.4030000
    689    689      5      0.0000000     16.9570000     23.1570000     10.5660000
    690    690      2      0.0000000     14.8410000     23.0470000     10.5150000
    691    691      1      0.0000000     12.6500000     20.8340000      8.6140000
    692    692      5      0.0000000     14.9370000     22.9020000      8.5020000
    693    693      5      0.0000000     14.6410000     20.9860000     10.6640000
    694    694      5      0.0000000     12.8030000     23.1060000     10.2930000
    695    695      2      0.0000000     23.2410000     18.8620000     10.4310000
    696    696      1      0.0000000     21.2110000     17.1110000      8.4870000
    697    697      5      0.0000000     23.2550000     18.9410000      8.4080000
    698    698      5      0.0000000     23.0570000     16.8680000     10.2080000
    699    699      5      0.0000000     21.1430000     19.1040000     10.6560000
    700    700      2      0.0000000     18.9780000     18.8920000     10.6520000
    701    701      1      0.0000000     16.8620000     16.8900000      8.7040000
    702    702      5      0.0000000     19.0750000     18.7390000      8.5340000
    703    703      5      0.0000000     19.0000000     16.8230000     10.8450000
    704    704      5      0.0000000     16.9220000     18.9840000     10.5890000
    705    705      2      0.0000000     14.8150000     18.9460000     10.6790000
    706    706      1      0.0000000     12.8130000     16.7610000      8.6080000
    707    707      5      0.0000000     14.9630000     18.6400000      8.5440000
    708    708      5      0.0000000     14.7090000     16.6510000     10.6520000
    709    709      5      0.0000000     12.7400000     18.8290000     10.6300000
    710    710      2      0.0000000     23.1940000     14.8880000     10.4340000
    711    711      1      0.0000000     21.0190000     12.8090000      8.4320000
    712    712      5      0.0000000     23.3770000     14.9140000      8.3900000
    713    713      5      0.0000000     22.9900000     12.5520000     10.5620000
    714    714      5      0.0000000     21.1250000     14.6570000     10.5080000
    715    715      2      0.0000000     19.0820000     14.5850000     10.5540000
    716    716      1      0.0000000     17.0530000     12.4500000      8.3870000
    717    717      5      0.0000000     19.0490000     14.7330000      8.5710000
    718    718      5      0.0000000     18.9040000     12.5180000     10.3310000
    719    719      5      0.0000000     16.9330000     14.6190000     10.5950000
    720    720      2      0.0000000     14.7990000     14.4660000     10.5190000
    721    721      1      0.0000000     12.6430000     12.6750000      8.3030000
    722    722      5      0.0000000     14.8010000     14.6250000      8.3680000
    723    723      5      0.0000000     14.9750000     12.3860000     10.6380000
    724    724      5      0.0000000     12.7360000     14.3440000     10.3570000
    725    725      2      0.0000000     23.1940000     23.1040000      6.3930000
    726    726      1      0.0000000     20.9550000     20.8710000      4.3030000
    727    727      5      0.0000000     23.2640000     22.9570000      4.3490000
    728    728      5      0.0000000     23.1810000     21.0800000      6.2910000
    729    729      5      0.0000000     20.9780000     22.9410000      6.5250000
    730    730      2      0.0000000     18.9380000     23.0770000      6.3370000
    731    731      1      0.0000000     16.9200000     20.8840000      4.2530000
    732    732      5      0.0000000     18.9680000     23.1060000      4.2210000
    733    733      5      0.0000000     18.9850000     21.0050000      6.0610000
    734    734      5      0.0000000     16.8600000     23.1460000      6.3740000
    735    735      2      0.0000000     14.6740000     23.0080000      6.2910000
    736    736      1      0.0000000     12.8070000     20.9060000      4.3080000
    737    737      5      0.0000000     14.8220000     23.0880000      4.2050000
    738    738      5      0.0000000     14.6500000     20.9620000      6.5380000
    739    739      5      0.0000000     12.6430000     23.1380000      6.2410000
    740    740      2      0.0000000     23.2140000     18.9460000      6.4000000
    741    741      1      0.0000000     21.2530000     16.9740000      4.4450000
    742    742      5      0.0000000     23.1670000     18.9470000      4.2210000
    743    743      5      0.0000000     23.1750000     16.8660000      6.2430000
    744    744      5      0.0000000     21.1240000     19.0050000      6.5080000
    745    745      2      0.0000000     18.9830000     18.9660000      6.4290000
    746    746      1      0.0000000     16.9500000     16.7100000      4.3760000
    747    747      5      0.0000000     19.0850000     18.9010000      4.2360000
    748    748      5      0.0000000     19.0180000     16.8770000      6.5110000
    749    749      5      0.0000000     16.8880000     18.9810000      6.4240000
    750    750      2      0.0000000     14.8220000     18.8870000      6.4540000
    751    751      1      0.0000000     12.6500000     16.5790000      4.4260000
    752    752      5      0.0000000     15.0490000     19.1680000      4.2630000
    753    753      5      0.0000000     14.6440000     16.6770000      6.2660000
    754    754      5      0.0000000     12.8010000     18.8660000      6.4140000
    755    755      2      0.0000000     23.2780000     14.7600000      6.2890000
    756    756      1      0.0000000     21.3510000     12.7960000      4.4730000
    757    757      5      0.0000000     23.2350000     14.6880000      4.2900000
    758    758      5      0.0000000     23.3710000     12.6070000      6.4340000
    759    759      5      0.0000000     21.2900000     14.8610000      6.4060000
    760    760      2      0.0000000     19.0450000     14.7790000      6.5430000
    761    761      1      0.0000000     16.8870000     12.6210000      4.1630000
    762    762      5      0.0000000     18.9040000     14.6420000      4.3880000
    763    763      5      0.0000000     19.3360000     12.5490000      6.4560000
    764    764      5      0.0000000     16.8780000     14.7580000      6.6850000
    765    765      2      0.0000000     14.7800000     14.5390000      6.3120000
    766    766      1      0.0000000     12.7760000     12.5000000      4.2500000
    767    767      5      0.0000000     14.9780000     14.3770000      4.2340000
    768    768      5      0.0000000     14.9010000     12.4440000      6.1520000
    769    769      5      0.0000000     12.7460000     14.4620000      6.2280000
    770    770      2      0.0000000     23.1520000     23.1250000      2.3580000
    771    771      1      0.0000000     21.0500000     20.9030000     -0.0060000
    772    772      5      0.0000000     23.1660000     22.9690000     -0.1540000
    773    773      5      0.0000000     23.1790000     21.1200000      2.1040000
    774    774      5      0.0000000     21.0410000     23.2220000      2.0960000
    775    775      2      0.0000000     19.0140000     22.9390000      2.1350000
    776    776      1      0.0000000     16.8090000     20.8250000     -0.1000000
    777    777      5      0.0000000     18.9230000     22.8340000      0.0410000
    778    778      5      0.0000000     19.1750000     20.8690000      2.3240000
    779    779      5      0.0000000     16.9350000     22.9260000      2.0770000
    780    780      2      0.0000000     14.8660000     22.9730000      2.1410000
    781    781      1      0.0000000     12.8310000     21.0270000     -0.0090000
    782    782      5      0.0000000     14.8400000     23.2460000      0.0540000
    783    783      5      0.0000000     14.9140000     20.9910000      1.9650000
    784    784      5      0.0000000     12.6790000     22.7830000      2.0970000
    785    785      2      0.0000000     23.2170000     18.9750000      2.1400000
    786    786      1      0.0000000     21.3510000     16.7030000      0.1310000
    787    787      5      0.0000000     23.1410000     19.0380000      0.0230000
    788    788      5      0.0000000     23.3860000     16.7320000      2.2310000
    789    789      5      0.0000000     21.0970000     18.8190000      2.0840000
    790    790      2      0.0000000     19.0210000     18.7940000      2.1650000
    791    791      1      0.0000000     16.9090000     16.7800000      0.0620000
    792    792      5      0.0000000     18.8790000     18.7100000      0.0750000
    793    793      5      0.0000000     18.8560000     16.7310000      2.1380000
    794    794      5      0.0000000     16.9100000     18.8650000      2.1250000
    795    795      2      0.0000000     14.8830000     18.8870000      2.1320000
    796    796      1      0.0000000     12.9310000     16.9070000      0.2140000
    797    797      5      0.0000000     14.5980000     18.9350000     -0.0070000
    798    798      5      0.0000000     14.7210000     16.6490000      2.1340000
    799    799      5      0.0000000     12.7920000     18.8250000      2.3090000
    800    800      2      0.0000000     23.2140000     14.6000000      2.2260000
    801    801      1      0.0000000     21.1100000     12.5810000      0.0940000
    802    802      5      0.0000000     23.1300000     14.6630000      0.1140000
    803    803      5      0.0000000     23.3640000     12.5940000      2.2580000
    804    804      5      0.0000000     21.1230000     14.6170000      2.0630000
    805    805      2      0.0000000     18.9770000     14.6000000      2.2220000
    806    806      1      0.0000000     16.7180000     12.7450000      0.0670000
    807    807      5      0.0000000     19.0530000     14.7280000      0.0130000
    808    808      5      0.0000000     18.9190000     12.6440000      2.3110000
    809    809      5      0.0000000     16.7860000     14.5250000      2.1790000
    810    810      2      0.0000000      2.2260000     14.5890000      2.0660000
    811    811      1      0.0000000     -0.1500000     12.5010000      0.1340000
    812    812      5      0.0000000      2.2690000     14.4490000      0.0520000
    813    813      5      0.0000000      2.0950000     12.3930000      1.9000000
    814    814      5      0.0000000      0.0370000     14.7280000      2.3260000
    815    815      2      0.0000000     10.6250000     23.0790000     10.4890000
    816    816      1      0.0000000      8.4640000     21.0980000      8.4030000
    817    817      5      0.0000000     10.5700000     23.0420000      8.3350000
    818    818      5      0.0000000     10.5790000     20.9940000     10.5110000
    819    819      5      0.0000000      8.5210000     22.9850000     10.6210000
    820    820      2      0.0000000      6.4160000     23.0710000     10.6520000
    821    821      1      0.0000000      4.1560000     21.0750000      8.6950000
    822    822      5      0.0000000      6.4610000     23.2030000      8.6610000
    823    823      5      0.0000000      6.3520000     20.9900000     10.5980000
    824    824      5      0.0000000      4.2380000     23.0030000     10.6410000
    825    825      2      0.0000000      2.2520000     23.0930000     10.7320000
    826    826      1      0.0000000     -0.0810000     21.1010000      8.4540000
    827    827      5      0.0000000      2.1790000     23.1650000      8.5860000
    828    828      5      0.0000000      1.9080000     20.9530000     10.6800000
    829    829      5      0.0000000      0.1390000     23.3290000     10.7360000
    830    830      2      0.0000000     10.6210000     18.9390000     10.5920000
    831    831      1      0.0000000      8.6810000     16.7620000      8.3310000
    832    832      5      0.0000000     10.5880000     18.9250000      8.4400000
    833    833      5      0.0000000     10.7690000     16.7190000     10.5050000
    834    834      5      0.0000000      8.6600000     18.7860000     10.5260000
    835    835      2      0.0000000      6.4280000     18.8420000     10.3880000
    836    836      1      0.0000000      4.3020000     16.7450000      8.5550000
    837    837      5      0.0000000      6.5880000     18.7320000      8.3750000
    838    838      5      0.0000000      6.3940000     16.9310000     10.4540000
    839    839      5      0.0000000      4.2890000     19.0530000     10.3960000
    840    840      2      0.0000000      2.1180000     18.8400000     10.4830000
    841    841      1      0.0000000      0.0710000     16.9130000      8.3520000
    842    842      5      0.0000000      2.0950000     18.8920000      8.4670000
    843    843      5      0.0000000      2.3510000     16.7940000     10.4570000
    844    844      5      0.0000000     -0.0390000     18.6670000     10.4940000
    845    845      2      0.0000000     10.4510000     14.6120000     10.6090000
    846    846      1      0.0000000      8.2720000     12.3840000      8.3490000
    847    847      5      0.0000000     10.5800000     14.4760000      8.5130000
    848    848      5      0.0000000     10.5490000     12.5050000     10.6180000
    849    849      5      0.0000000      8.4180000     14.7280000     10.6110000
    850    850      2      0.0000000      6.3340000     14.7970000     10.4170000
    851    851      1      0.0000000      4.2650000     12.5840000      8.2670000
    852    852      5      0.0000000      6.4600000     14.9420000      8.4190000
    853    853      5      0.0000000      6.0980000     12.5850000     10.4400000
    854    854      5      0.0000000      4.1930000     14.6350000     10.5980000
    855    855      2      0.0000000      2.0210000     14.6690000     10.4610000
    856    856      1      0.0000000     -0.0450000     12.6700000      8.3060000
    857    857      5      0.0000000      2.1500000     14.6620000      8.2940000
    858    858      5      0.0000000      2.1680000     12.6280000     10.3500000
    859    859      5      0.0000000     -0.0150000     14.7510000     10.5470000
    860    860      2      0.0000000     10.5870000     23.0460000      6.3810000
    861    861      1      0.0000000      8.4480000     21.0380000      4.4610000
    862    862      5      0.0000000     10.6700000     23.0450000      4.2440000
    863    863      5      0.0000000     10.6280000     20.9890000      6.4990000
    864    864      5      0.0000000      8.3830000     23.1250000      6.1640000
    865    865      2      0.0000000      6.2500000     23.1760000      6.3460000
    866    866      1      0.0000000      4.0190000     21.1450000      4.2680000
    867    867      5      0.0000000      6.2390000     23.1080000      4.2920000
    868    868      5      0.0000000      6.3000000     21.0210000      6.3270000
    869    869      5      0.0000000      4.2310000     22.9990000      6.5290000
    870    870      2      0.0000000      2.1520000     23.1490000      6.4580000
    871    871      1      0.0000000     -0.1360000     21.0840000      4.4230000
    872    872      5      0.0000000      2.1700000     23.1360000      4.2550000
    873    873      5      0.0000000      2.0370000     21.0110000      6.4870000
    874    874      5      0.0000000      0.0420000     23.0100000      6.5480000
    875    875      2      0.0000000     10.6180000     18.9490000      6.2910000
    876    876      1      0.0000000      8.3860000     16.9270000      4.2860000
    877    877      5      0.0000000     10.7200000     18.9840000      4.3590000
    878    878      5      0.0000000     10.6900000     16.7750000      6.3390000
    879    879      5      0.0000000      8.6020000     18.8560000      6.2980000
    880    880      2      0.0000000      6.3420000     18.9300000      6.4170000
    881    881      1      0.0000000      4.2700000     16.9250000      4.2260000
    882    882      5      0.0000000      6.3020000     18.7390000      4.3790000
    883    883      5      0.0000000      6.2470000     16.8440000      6.2150000
    884    884      5      0.0000000      4.1270000     18.9890000      6.5000000
    885    885      2      0.0000000      2.1420000     18.9710000      6.3770000
    886    886      1      0.0000000      0.0070000     16.9160000      4.0250000
    887    887      5      0.0000000      2.0610000     19.0740000      4.1980000
    888    888      5      0.0000000      2.1680000     16.8170000      6.2750000
    889    889      5      0.0000000     -0.0790000     18.9830000      6.3370000
    890    890      2      0.0000000     10.5720000     14.6360000      6.3660000
    891    891      1      0.0000000      8.4870000     12.7060000      4.0300000
    892    892      5      0.0000000     10.4920000     14.7470000      4.2510000
    893    893      5      0.0000000     10.4340000     12.6360000      6.2880000
    894    894      5      0.0000000      8.4310000     14.7370000      6.4830000
    895    895      2      0.0000000      6.3890000     14.7260000      6.2290000
    896    896      1      0.0000000      4.2770000     12.5980000      4.0760000
    897    897      5      0.0000000      6.4100000     14.8660000      4.2220000
    898    898      5      0.0000000      6.3280000     12.5040000      6.2700000
    899    899      5      0.0000000      4.2640000     14.6170000      6.2050000
    900    900      2      0.0000000      2.1630000     14.7370000      6.1820000
    901    901      1      0.0000000      0.0330000     12.6060000      4.1250000
    902    902      5      0.0000000      2.2270000     14.4130000      4.1130000
    903    903      5      0.0000000      2.1260000     12.5710000      6.1800000
    904    904      5      0.0000000      0.0150000     15.0400000      6.3190000
    905    905      2      0.0000000     10.4900000     22.8980000      2.0560000
    906    906      1      0.0000000      8.4970000     20.9420000     -0.1220000
    907    907      5      0.0000000     10.3360000     23.1540000     -0.0060000
    908    908      5      0.0000000     10.6410000     20.9330000      2.0070000
    909    909      5      0.0000000      8.4370000     23.0170000      2.1150000
    910    910      2      0.0000000      6.3800000     22.9690000      2.1530000
    911    911      1      0.0000000      4.1850000     21.1100000     -0.1570000
    912    912      5      0.0000000      6.2400000     22.8560000     -0.0750000
    913    913      5      0.0000000      6.2430000     21.0370000      2.1300000
    914    914      5      0.0000000      4.2890000     23.2610000      2.2360000
    915    915      2      0.0000000      2.0830000     23.1060000      2.0800000
    916    916      1      0.0000000     -0.1280000     21.1950000      0.1700000
    917    917      5      0.0000000      2.0260000     23.1210000      0.1080000
    918    918      5      0.0000000      2.3800000     21.0620000      2.1230000
    919    919      5      0.0000000     -0.0670000     23.0740000      2.2170000
    920    920      2      0.0000000     10.5720000     18.8590000      2.1410000
    921    921      1      0.0000000      8.4660000     16.8020000     -0.0100000
    922    922      5      0.0000000     10.6530000     18.7380000      0.0840000
    923    923      5      0.0000000     10.6020000     16.8200000      2.2690000
    924    924      5      0.0000000      8.5800000     19.0310000      2.4020000
    925    925      2      0.0000000      6.3000000     18.9300000      2.1380000
    926    926      1      0.0000000      4.2590000     16.7950000      0.1000000
    927    927      5      0.0000000      6.3830000     18.9680000      0.1120000
    928    928      5      0.0000000      6.2140000     16.8620000      2.1890000
    929    929      5      0.0000000      4.1710000     18.9670000      2.1620000
    930    930      2      0.0000000      2.2200000     18.9270000      2.1080000
    931    931      1      0.0000000      0.0220000     16.7730000      0.0050000
    932    932      5      0.0000000      2.0750000     18.8310000      0.0080000
    933    933      5      0.0000000      2.2610000     16.7890000      2.2000000
    934    934      5      0.0000000      0.1340000     19.0250000      2.1430000
    935    935      2      0.0000000     10.5650000     14.7680000      2.1260000
    936    936      1      0.0000000      8.3100000     12.4990000     -0.0390000
    937    937      5      0.0000000     10.6770000     14.8230000      0.1550000
    938    938      5      0.0000000     10.3810000     12.5570000      2.0670000
    939    939      5      0.0000000      8.5330000     14.7830000      2.0970000
    940    940      2      0.0000000      6.2200000     14.7720000      2.1910000
    941    941      1      0.0000000      4.2330000     12.5750000      0.1380000
    942    942      5      0.0000000      6.3800000     14.8340000      0.0510000
    943    943      5      0.0000000      6.1580000     12.5110000      2.2060000
    944    944      5      0.0000000      4.2450000     14.7480000      2.0790000
    945    945      2      0.0000000     14.7590000      2.1000000      2.0860000
    946    946      1      0.0000000     12.6370000      0.2130000      0.1170000
    947    947      5      0.0000000     14.6740000      2.0390000      0.0010000
    948    948      5      0.0000000     14.8930000      0.0240000      2.1040000
    949    949      5      0.0000000     12.5250000      1.9790000      2.1320000
    950    950      2      0.0000000     23.0820000     10.5360000     10.5080000
    951    951      1      0.0000000     21.0270000      8.2730000      8.4170000
    952    952      5      0.0000000     23.3100000     10.3350000      8.3410000
    953    953      5      0.0000000     23.2640000      8.3120000     10.6050000
    954    954      5      0.0000000     21.0580000     10.2730000     10.4590000
    955    955      2      0.0000000     18.9880000     10.2340000     10.3920000
    956    956      1      0.0000000     16.9960000      8.1760000      8.5170000
    957    957      5      0.0000000     18.9520000     10.3190000      8.3990000
    958    958      5      0.0000000     18.9960000      8.2090000     10.4480000
    959    959      5      0.0000000     16.9070000     10.3250000     10.4520000
    960    960      2      0.0000000     14.7170000     10.4130000     10.6080000
    961    961      1      0.0000000     12.7120000      8.3670000      8.4030000
    962    962      5      0.0000000     14.7060000     10.4060000      8.3120000
    963    963      5      0.0000000     14.7660000      8.2280000     10.5950000
    964    964      5      0.0000000     12.7940000     10.4740000     10.5270000
    965    965      2      0.0000000     23.2680000      6.1850000     10.5200000
    966    966      1      0.0000000     21.1410000      4.1250000      8.2190000
    967    967      5      0.0000000     23.0860000      6.2020000      8.3690000
    968    968      5      0.0000000     23.2640000      4.2430000     10.5530000
    969    969      5      0.0000000     21.0700000      6.1680000     10.5640000
    970    970      2      0.0000000     18.9490000      6.0690000     10.5800000
    971    971      1      0.0000000     16.7800000      4.1130000      8.2220000
    972    972      5      0.0000000     18.7370000      6.0780000      8.3710000
    973    973      5      0.0000000     19.1490000      4.0700000     10.6960000
    974    974      5      0.0000000     16.9700000      6.1680000     10.5420000
    975    975      2      0.0000000     14.7930000      6.1200000     10.4590000
    976    976      1      0.0000000     12.6990000      4.0920000      8.4020000
    977    977      5      0.0000000     14.9360000      6.1610000      8.3820000
    978    978      5      0.0000000     15.0240000      3.9950000     10.5430000
    979    979      5      0.0000000     12.6480000      6.0830000     10.3780000
    980    980      2      0.0000000     23.2400000      2.1170000     10.5620000
    981    981      1      0.0000000     21.2140000      0.0820000      8.3910000
    982    982      5      0.0000000     23.3520000      2.0080000      8.4400000
    983    983      5      0.0000000     23.2850000      0.0010000     10.7040000
    984    984      5      0.0000000     21.2620000      2.0220000     10.4270000
    985    985      2      0.0000000     19.0810000      2.0200000     10.4000000
    986    986      1      0.0000000     16.8010000     -0.1410000      8.2920000
    987    987      5      0.0000000     19.2010000      2.2670000      8.4230000
    988    988      5      0.0000000     19.3990000     -0.0620000     10.5880000
    989    989      5      0.0000000     17.0400000      1.7210000     10.2780000
    990    990      2      0.0000000     14.9800000      2.0500000     10.5170000
    991    991      1      0.0000000     12.8660000      0.0620000      8.4580000
    992    992      5      0.0000000     14.7850000      2.1630000      8.3660000
    993    993      5      0.0000000     14.6960000     -0.0010000     10.4040000
    994    994      5      0.0000000     12.7650000      2.1450000     10.4820000
    995    995      2      0.0000000     23.2620000     10.4120000      6.3140000
    996    996      1      0.0000000     20.9540000      8.5230000      4.1770000
    997    997      5      0.0000000     23.2180000     10.4830000      4.2380000
    998    998      5      0.0000000     23.2070000      8.3320000      6.0840000
    999    999      5      0.0000000     21.1710000     10.3830000      6.3030000
   1000   1000      2      0.0000000     19.0380000     10.5020000      6.3630000
   1001   1001      1      0.0000000     16.7910000      8.5640000      4.4720000
   1002   1002      5      0.0000000     18.9240000     10.4260000      4.1190000
   1003   1003      5      0.0000000     18.9340000      8.4140000      6.3740000
   1004   1004      5      0.0000000     16.9620000     10.6080000      6.3350000
   1005   1005      2      0.0000000     14.7540000     10.4600000      6.3090000
   1006   1006      1      0.0000000     12.6560000      8.4470000      4.2070000
   1007   1007      5      0.0000000     14.6560000     10.2880000      4.1660000
   1008   1008      5      0.0000000     14.6300000      8.4300000      6.4610000
   1009   1009      5      0.0000000     12.4770000     10.6390000      6.1420000
   1010   1010      2      0.0000000     23.2560000      6.3520000      6.2280000
   1011   1011      1      0.0000000     21.1060000      4.2950000      4.0280000
   1012   1012      5      0.0000000     23.1580000      6.2740000      4.2280000
   1013   1013      5      0.0000000     23.3550000      4.0460000      6.3670000
   1014   1014      5      0.0000000     20.9520000      6.2280000      6.3390000
   1015   1015      2      0.0000000     18.8520000      6.1570000      6.2070000
   1016   1016      1      0.0000000     17.0200000      4.0520000      4.1040000
   1017   1017      5      0.0000000     19.0810000      6.2690000      4.1190000
   1018   1018      5      0.0000000     18.8110000      4.1430000      6.2890000
   1019   1019      5      0.0000000     16.8630000      6.2040000      6.3360000
   1020   1020      2      0.0000000     14.7310000      6.2640000      6.2700000
   1021   1021      1      0.0000000     12.6350000      4.1790000      4.0810000
   1022   1022      5      0.0000000     14.7690000      6.4420000      4.2260000
   1023   1023      5      0.0000000     14.6690000      4.3120000      6.2570000
   1024   1024      5      0.0000000     12.5950000      6.2850000      6.3290000
   1025   1025      2      0.0000000     23.2710000      2.0760000      6.3120000
   1026   1026      1      0.0000000     21.0270000      0.1140000      4.1170000
   1027   1027      5      0.0000000     23.3590000      2.2130000      4.1910000
   1028   1028      5      0.0000000     23.2280000     -0.0910000      6.3530000
   1029   1029      5      0.0000000     21.2150000      2.1080000      6.2670000
   1030   1030      2      0.0000000     19.0580000      2.1290000      6.2740000
   1031   1031      1      0.0000000     16.8270000     -0.0660000      4.0500000
   1032   1032      5      0.0000000     18.8200000      1.9690000      4.1640000
   1033   1033      5      0.0000000     18.9340000      0.0120000      6.4560000
   1034   1034      5      0.0000000     16.8050000      2.1700000      6.5460000
   1035   1035      2      0.0000000     14.7510000      2.1690000      6.3420000
   1036   1036      1      0.0000000     12.5340000     -0.1220000      4.0860000
   1037   1037      5      0.0000000     14.8480000      2.0890000      4.2600000
   1038   1038      5      0.0000000     14.7630000      0.1110000      6.3970000
   1039   1039      5      0.0000000     12.6970000      2.2300000      6.2390000
   1040   1040      2      0.0000000     23.2050000     10.3630000      2.1190000
   1041   1041      1      0.0000000     21.1300000      8.4260000      0.0420000
   1042   1042      5      0.0000000     23.3080000     10.4440000      0.0220000
   1043   1043      5      0.0000000     23.2760000      8.3600000      2.0670000
   1044   1044      5      0.0000000     21.1050000     10.3730000      1.9700000
   1045   1045      2      0.0000000     18.8860000     10.4910000      2.1240000
   1046   1046      1      0.0000000     16.9850000      8.3100000     -0.1780000
   1047   1047      5      0.0000000     19.1250000     10.5480000      0.0080000
   1048   1048      5      0.0000000     19.0300000      8.3560000      2.2510000
   1049   1049      5      0.0000000     16.7780000     10.4210000      2.0220000
   1050   1050      2      0.0000000     14.6620000     10.4250000      2.0030000
   1051   1051      1      0.0000000     12.6110000      8.3840000     -0.0480000
   1052   1052      5      0.0000000     14.6500000     10.4790000     -0.0650000
   1053   1053      5      0.0000000     14.7500000      8.3520000      2.0780000
   1054   1054      5      0.0000000     12.6830000     10.6050000      2.0110000
   1055   1055      2      0.0000000     23.1780000      6.2780000      2.0680000
   1056   1056      1      0.0000000     21.4080000      4.4350000      0.1170000
   1057   1057      5      0.0000000     23.1210000      6.4610000      0.0640000
   1058   1058      5      0.0000000     23.0190000      4.3220000      2.1320000
   1059   1059      5      0.0000000     21.0330000      6.2760000      2.2000000
   1060   1060      2      0.0000000     18.8280000      6.3450000      2.1460000
   1061   1061      1      0.0000000     17.0880000      3.9110000     -0.0770000
   1062   1062      5      0.0000000     18.8770000      6.3380000     -0.0840000
   1063   1063      5      0.0000000     18.9330000      4.1850000      2.0740000
   1064   1064      5      0.0000000     16.8370000      6.2780000      2.0470000
   1065   1065      2      0.0000000     14.7470000      6.2720000      2.1090000
   1066   1066      1      0.0000000     12.4610000      4.1120000     -0.1530000
   1067   1067      5      0.0000000     14.6900000      6.4320000     -0.0740000
   1068   1068      5      0.0000000     14.7770000      4.2440000      2.1520000
   1069   1069      5      0.0000000     12.7520000      6.2270000      2.1400000
   1070   1070      2      0.0000000     23.1760000      2.1670000      2.0240000
   1071   1071      1      0.0000000     20.9420000     -0.0320000     -0.0060000
   1072   1072      5      0.0000000     23.0680000      2.2110000      0.1180000
   1073   1073      5      0.0000000     23.2940000      0.0190000      2.0840000
   1074   1074      5      0.0000000     21.0690000      2.1780000      2.2780000
   1075   1075      2      0.0000000     18.9230000      2.0660000      2.1070000
   1076   1076      1      0.0000000     16.8000000     -0.1000000     -0.1530000
   1077   1077      5      0.0000000     18.9310000      2.1260000      0.0090000
   1078   1078      5      0.0000000     18.8620000     -0.1440000      2.0770000
   1079   1079      5      0.0000000     16.8460000      2.1230000      2.0740000
   1080   1080      4      0.0000000      6.3860000      8.3230000     10.3910000
   1081   1080      7      0.0000000      7.3540000      7.3950000     10.4560000

 Bonds

       1       1    1080    1081
