LAMMPS (3 Aug 2023 - Development - patch_2Aug2023-673-gf0801338f3-modified)
WARNING: Using I/O redirection is unreliable with parallel runs. Better to use the -in switch to read input files. (src/lammps.cpp:537)
OMP_NUM_THREADS environment is not set. Defaulting to 1 thread. (src/comm.cpp:98)
  using 1 OpenMP thread(s) per MPI task
units metal
atom_style full
boundary p p p
read_data bazryo3-1.0.lmp
Reading data file ...
  orthogonal box = (0 0 0) to (25.319 25.319 25.319)
  2 by 2 by 2 MPI processor grid
  reading atoms ...
  1081 atoms
  scanning bonds ...
  1 = max bonds/atom
  reading bonds ...
  1 bonds
Finding 1-2 1-3 1-4 neighbors ...
  special bond factors lj:    0        0        0       
  special bond factors coul:  0        0        0       
     1 = max # of 1-2 neighbors
     0 = max # of 1-3 neighbors
     0 = max # of 1-4 neighbors
     1 = max # of special neighbors
  special bonds CPU = 0.001 seconds
  read_data CPU = 0.008 seconds
change_box all triclinic
Changing box ...
  triclinic box = (0 0 0) to (25.319 25.319 25.319) with tilt (0 0 0)
include ff.lmp
##############################################################################################
#### Atoms' types - mass - charge
##############################################################################################
#@ 7   atom types

variable Ba  equal 1
variable Zr  equal 2
variable  Y  equal 3
variable O1  equal 4
variable O2  equal 5
variable O3  equal 6
variable H1  equal 7

##############################################################################################
#### Atoms' masses
##############################################################################################

mass  ${Ba}   137.327
mass  1   137.327
mass  ${Zr}    91.224
mass  2    91.224
mass  ${Y}     88.910
mass  3     88.910
mass  ${O1}    15.996
mass  4    15.996
mass  ${O2}    15.996
mass  5    15.996
mass  ${O3}    15.996
mass  6    15.996
mass  ${H1}     1.008
mass  7     1.008

##############################################################################################
#### Atoms' charges
##############################################################################################

set type ${Ba}  charge     2.000000
set type 1  charge     2.000000
Setting atom values ...
  216 settings made for charge
set type ${Zr}  charge     4.000000
set type 2  charge     4.000000
Setting atom values ...
  216 settings made for charge
set type ${Y}   charge     3.000000
set type 3   charge     3.000000
Setting atom values ...
  0 settings made for charge
set type ${O1}  charge    -1.308698
set type 4  charge    -1.308698
Setting atom values ...
  1 settings made for charge
set type ${O2}  charge    -2.000000
set type 5  charge    -2.000000
Setting atom values ...
  647 settings made for charge
set type ${O3}  charge    -2.000000
set type 6  charge    -2.000000
Setting atom values ...
  0 settings made for charge
set type ${H1}  charge     0.308698
set type 7  charge     0.308698
Setting atom values ...
  1 settings made for charge

##############################################################################################
#### Covalent bonds parameters
##############################################################################################
#@  1   bond types

bond_style harmonic
#@ O1 - H1
# bond_coeff   1      11.504000      0.985357
bond_coeff   1      23.008000      0.985357

##############################################################################################
# Pair potentials
##############################################################################################

variable rmin  equal  8.
variable rmax  equal 10.

pair_style hybrid/overlay buck/mdf ${rmin} ${rmax} lennard/mdf ${rmin} ${rmax} coul/long ${rmax}
pair_style hybrid/overlay buck/mdf 8 ${rmax} lennard/mdf ${rmin} ${rmax} coul/long ${rmax}
pair_style hybrid/overlay buck/mdf 8 10 lennard/mdf ${rmin} ${rmax} coul/long ${rmax}
pair_style hybrid/overlay buck/mdf 8 10 lennard/mdf 8 ${rmax} coul/long ${rmax}
pair_style hybrid/overlay buck/mdf 8 10 lennard/mdf 8 10 coul/long ${rmax}
pair_style hybrid/overlay buck/mdf 8 10 lennard/mdf 8 10 coul/long 10

##############################################################################################
# Buckingham interaction potentials
pair_coeff  ${Ba}  ${O1}  buck/mdf   688.21662   0.392014   0.000
pair_coeff  1  ${O1}  buck/mdf   688.21662   0.392014   0.000
pair_coeff  1  4  buck/mdf   688.21662   0.392014   0.000
pair_coeff  ${Ba}  ${O2}  buck/mdf   972.19945   0.392014   0.000
pair_coeff  1  ${O2}  buck/mdf   972.19945   0.392014   0.000
pair_coeff  1  5  buck/mdf   972.19945   0.392014   0.000
pair_coeff  ${Ba}  ${O3}  buck/mdf   972.19945   0.392014   0.000
pair_coeff  1  ${O3}  buck/mdf   972.19945   0.392014   0.000
pair_coeff  1  6  buck/mdf   972.19945   0.392014   0.000

pair_coeff  ${Y}   ${O1}  buck/mdf   2972.3808   0.267317   0.000
pair_coeff  3   ${O1}  buck/mdf   2972.3808   0.267317   0.000
pair_coeff  3   4  buck/mdf   2972.3808   0.267317   0.000
pair_coeff  ${Y}   ${O2}  buck/mdf   4121.8373   0.280386   0.000
pair_coeff  3   ${O2}  buck/mdf   4121.8373   0.280386   0.000
pair_coeff  3   5  buck/mdf   4121.8373   0.280386   0.000
pair_coeff  ${Y}   ${O3}  buck/mdf   4121.8373   0.280386   0.000
pair_coeff  3   ${O3}  buck/mdf   4121.8373   0.280386   0.000
pair_coeff  3   6  buck/mdf   4121.8373   0.280386   0.000

pair_coeff  ${Zr}  ${O1}  buck/mdf   2195.8712   0.298760   0.000
pair_coeff  2  ${O1}  buck/mdf   2195.8712   0.298760   0.000
pair_coeff  2  4  buck/mdf   2195.8712   0.298760   0.000
pair_coeff  ${Zr}  ${O2}  buck/mdf   3250.8545   0.298760   0.000
pair_coeff  2  ${O2}  buck/mdf   3250.8545   0.298760   0.000
pair_coeff  2  5  buck/mdf   3250.8545   0.298760   0.000
pair_coeff  ${Zr}  ${O3}  buck/mdf   3250.8545   0.298760   0.000
pair_coeff  2  ${O3}  buck/mdf   3250.8545   0.298760   0.000
pair_coeff  2  6  buck/mdf   3250.8545   0.298760   0.000

pair_coeff  ${O1}  ${O1}  buck/mdf   22764.000   0.149000   0.000
pair_coeff  4  ${O1}  buck/mdf   22764.000   0.149000   0.000
pair_coeff  4  4  buck/mdf   22764.000   0.149000   0.000
pair_coeff  ${O1}  ${O2}  buck/mdf   22764.000   0.149000   0.000
pair_coeff  4  ${O2}  buck/mdf   22764.000   0.149000   0.000
pair_coeff  4  5  buck/mdf   22764.000   0.149000   0.000
pair_coeff  ${O1}  ${O3}  buck/mdf   22764.000   0.149000   0.000
pair_coeff  4  ${O3}  buck/mdf   22764.000   0.149000   0.000
pair_coeff  4  6  buck/mdf   22764.000   0.149000   0.000

pair_coeff  ${O2}  ${O2}  buck/mdf   22764.000   0.149000   0.000
pair_coeff  5  ${O2}  buck/mdf   22764.000   0.149000   0.000
pair_coeff  5  5  buck/mdf   22764.000   0.149000   0.000
pair_coeff  ${O2}  ${O3}  buck/mdf   22764.000   0.149000   0.000
pair_coeff  5  ${O3}  buck/mdf   22764.000   0.149000   0.000
pair_coeff  5  6  buck/mdf   22764.000   0.149000   0.000

pair_coeff  ${O3}  ${O3}  buck/mdf   22764.000   0.149000   0.000
pair_coeff  6  ${O3}  buck/mdf   22764.000   0.149000   0.000
pair_coeff  6  6  buck/mdf   22764.000   0.149000   0.000

##############################################################################################
# 12-6 Lennard-Jones potentials
pair_coeff  ${O1}  ${H1}  lennard/mdf    6.391   0.000
pair_coeff  4  ${H1}  lennard/mdf    6.391   0.000
pair_coeff  4  7  lennard/mdf    6.391   0.000
pair_coeff  ${O2}  ${H1}  lennard/mdf    6.391   0.000
pair_coeff  5  ${H1}  lennard/mdf    6.391   0.000
pair_coeff  5  7  lennard/mdf    6.391   0.000
pair_coeff  ${O3}  ${H1}  lennard/mdf    7.800   0.000
pair_coeff  6  ${H1}  lennard/mdf    7.800   0.000
pair_coeff  6  7  lennard/mdf    7.800   0.000

##############################################################################################
# Coulombic interaction
pair_coeff      *      *  coul/long

#########################################################################################################
# Parameters for reciprocal space electrostatics
#########################################################################################################

kspace_style pppm 1.0e-5
kspace_modify fftbench no
kspace_modify gewald 0.34497565

fix md all nve
fix tst all temp/csvr 1500 1500 0.1 73588
timestep 0.001
fix com all momentum 100 linear 1 1 1

run 0 post no
PPPM initialization ...
WARNING: System is not charge neutral, net charge = 1 (src/kspace.cpp:327)
  using 12-bit tables for long-range coulomb (src/kspace.cpp:342)
  G vector (1/distance) = 0.34497565
  grid = 40 40 40
  stencil order = 5
  estimated absolute RMS force accuracy = 0.00013990509
  estimated relative force accuracy = 9.7158711e-06
  using double precision KISS FFT
  3d grid and FFT values/proc = 24389 8000
Generated 0 of 21 mixed pair_coeff terms from geometric mixing rule
Neighbor list info ...
  update: every = 1 steps, delay = 0 steps, check = yes
  max neighbors/atom: 2000, page size: 100000
  master list distance cutoff = 12
  ghost atom cutoff = 12
  binsize = 6, bins = 5 5 5
  3 neighbor lists, perpetual/occasional/extra = 3 0 0
  (1) pair buck/mdf, perpetual, skip from (3)
      attributes: half, newton on
      pair build: skip
      stencil: none
      bin: none
  (2) pair lennard/mdf, perpetual, skip from (3)
      attributes: half, newton on
      pair build: skip
      stencil: none
      bin: none
  (3) pair coul/long, perpetual
      attributes: half, newton on
      pair build: half/bin/newton/tri
      stencil: half/bin/3d/tri
      bin: standard
Per MPI rank memory allocation (min/avg/max) = 9.829 | 9.845 | 9.946 Mbytes
   Step          Temp          E_pair         E_mol          TotEng         Press     
         0   0             -31399.552      3.129277      -31396.423     -15075.469    
Loop time of 7.15562e-06 on 8 procs for 0 steps with 1081 atoms

write_data /tmp/mustard.640189c1f8674eabab74225cc7efa77b nocoeff
System init for write_data ...
PPPM initialization ...
  using 12-bit tables for long-range coulomb (src/kspace.cpp:342)
  G vector (1/distance) = 0.34497565
  grid = 40 40 40
  stencil order = 5
  estimated absolute RMS force accuracy = 0.00013990509
  estimated relative force accuracy = 9.7158711e-06
  using double precision KISS FFT
  3d grid and FFT values/proc = 24389 8000
Generated 0 of 21 mixed pair_coeff terms from geometric mixing rule
fix ux all store/state 1 xu yu zu
fix ext all external pf/callback 1 1
fix_modify ext energy no
fix_modify ext virial no
compute get_pe all pe

run 0 post no
PPPM initialization ...
  using 12-bit tables for long-range coulomb (src/kspace.cpp:342)
  G vector (1/distance) = 0.34497565
  grid = 40 40 40
  stencil order = 5
  estimated absolute RMS force accuracy = 0.00013990509
  estimated relative force accuracy = 9.7158711e-06
  using double precision KISS FFT
  3d grid and FFT values/proc = 24389 8000
Generated 0 of 21 mixed pair_coeff terms from geometric mixing rule
Per MPI rank memory allocation (min/avg/max) = 10.58 | 10.6 | 10.7 Mbytes
   Step          Temp          E_pair         E_mol          TotEng         Press     
         0   0             -31399.552      3.129277      -31396.423     -15075.469    
Loop time of 5.5055e-06 on 8 procs for 0 steps with 1081 atoms

run 0 pre yes post no
PPPM initialization ...
  using 12-bit tables for long-range coulomb (src/kspace.cpp:342)
  G vector (1/distance) = 0.34497565
  grid = 40 40 40
  stencil order = 5
  estimated absolute RMS force accuracy = 0.00013990509
  estimated relative force accuracy = 9.7158711e-06
  using double precision KISS FFT
  3d grid and FFT values/proc = 24389 8000
Generated 0 of 21 mixed pair_coeff terms from geometric mixing rule
Per MPI rank memory allocation (min/avg/max) = 10.58 | 10.6 | 10.7 Mbytes
   Step          Temp          E_pair         E_mol          TotEng         Press     
         0   0             -31399.552      3.129277      -31396.423     -15075.469    
Loop time of 5.34975e-06 on 8 procs for 0 steps with 1081 atoms

run 1 pre yes post no
PPPM initialization ...
  using 12-bit tables for long-range coulomb (src/kspace.cpp:342)
  G vector (1/distance) = 0.34497565
  grid = 40 40 40
  stencil order = 5
  estimated absolute RMS force accuracy = 0.00013990509
  estimated relative force accuracy = 9.7158711e-06
  using double precision KISS FFT
  3d grid and FFT values/proc = 24389 8000
Generated 0 of 21 mixed pair_coeff terms from geometric mixing rule
Per MPI rank memory allocation (min/avg/max) = 10.58 | 10.6 | 10.7 Mbytes
   Step          Temp          E_pair         E_mol          TotEng         Press     
         0   0             -31399.552      3.129277      -31396.423     -15075.469    
         1   29.618303     -31401.49       4.1556497     -31393.199     -15180.392    
Loop time of 0.0395162 on 8 procs for 1 steps with 1081 atoms

run 1 pre yes post no
PPPM initialization ...
  using 12-bit tables for long-range coulomb (src/kspace.cpp:342)
  G vector (1/distance) = 0.34497565
  grid = 40 40 40
  stencil order = 5
  estimated absolute RMS force accuracy = 0.00013990509
  estimated relative force accuracy = 9.7158711e-06
  using double precision KISS FFT
  3d grid and FFT values/proc = 24389 8000
Generated 0 of 21 mixed pair_coeff terms from geometric mixing rule
Per MPI rank memory allocation (min/avg/max) = 10.58 | 10.6 | 10.7 Mbytes
   Step          Temp          E_pair         E_mol          TotEng         Press     
         1   29.618303     -31401.49       4.1556497     -31393.199     -15180.392    
         2   96.133553     -31407.73       3.5935088     -31390.716     -15377.868    
Loop time of 0.0390445 on 8 procs for 1 steps with 1081 atoms

run 1 pre yes post no
PPPM initialization ...
  using 12-bit tables for long-range coulomb (src/kspace.cpp:342)
  G vector (1/distance) = 0.34497565
  grid = 40 40 40
  stencil order = 5
  estimated absolute RMS force accuracy = 0.00013990509
  estimated relative force accuracy = 9.7158711e-06
  using double precision KISS FFT
  3d grid and FFT values/proc = 24389 8000
Generated 0 of 21 mixed pair_coeff terms from geometric mixing rule
Per MPI rank memory allocation (min/avg/max) = 10.58 | 10.6 | 10.7 Mbytes
   Step          Temp          E_pair         E_mol          TotEng         Press     
         2   96.133553     -31407.73       3.5935088     -31390.716     -15377.868    
         3   180.29182     -31416.608      1.0312129     -31390.408     -15648.085    
Loop time of 0.0386764 on 8 procs for 1 steps with 1081 atoms

run 1 pre yes post no
PPPM initialization ...
  using 12-bit tables for long-range coulomb (src/kspace.cpp:342)
  G vector (1/distance) = 0.34497565
  grid = 40 40 40
  stencil order = 5
  estimated absolute RMS force accuracy = 0.00013990509
  estimated relative force accuracy = 9.7158711e-06
  using double precision KISS FFT
  3d grid and FFT values/proc = 24389 8000
Generated 0 of 21 mixed pair_coeff terms from geometric mixing rule
Per MPI rank memory allocation (min/avg/max) = 10.58 | 10.6 | 10.7 Mbytes
   Step          Temp          E_pair         E_mol          TotEng         Press     
         3   180.29182     -31416.608      1.0312129     -31390.408     -15648.085    
         4   269.06387     -31428.104      0.68188239    -31389.861     -16492.858    
Loop time of 0.0394413 on 8 procs for 1 steps with 1081 atoms

run 1 pre yes post no
PPPM initialization ...
  using 12-bit tables for long-range coulomb (src/kspace.cpp:342)
  G vector (1/distance) = 0.34497565
  grid = 40 40 40
  stencil order = 5
  estimated absolute RMS force accuracy = 0.00013990509
  estimated relative force accuracy = 9.7158711e-06
  using double precision KISS FFT
  3d grid and FFT values/proc = 24389 8000
Generated 0 of 21 mixed pair_coeff terms from geometric mixing rule
Per MPI rank memory allocation (min/avg/max) = 10.58 | 10.6 | 10.7 Mbytes
   Step          Temp          E_pair         E_mol          TotEng         Press     
         4   269.06387     -31428.104      0.68188239    -31389.861     -16492.858    
         5   375.99479     -31441.19       1.9114078     -31386.79      -17460.877    
Loop time of 0.0398892 on 8 procs for 1 steps with 1081 atoms

run 1 pre yes post no
PPPM initialization ...
  using 12-bit tables for long-range coulomb (src/kspace.cpp:342)
  G vector (1/distance) = 0.34497565
  grid = 40 40 40
  stencil order = 5
  estimated absolute RMS force accuracy = 0.00013990509
  estimated relative force accuracy = 9.7158711e-06
  using double precision KISS FFT
  3d grid and FFT values/proc = 24389 8000
Generated 0 of 21 mixed pair_coeff terms from geometric mixing rule
Per MPI rank memory allocation (min/avg/max) = 10.58 | 10.6 | 10.7 Mbytes
   Step          Temp          E_pair         E_mol          TotEng         Press     
         5   375.99479     -31441.19       1.9114078     -31386.79      -17460.877    
         6   484.72953     -31454.932      1.5000404     -31385.763     -18430.822    
Loop time of 0.039866 on 8 procs for 1 steps with 1081 atoms

run 1 pre yes post no
PPPM initialization ...
  using 12-bit tables for long-range coulomb (src/kspace.cpp:342)
  G vector (1/distance) = 0.34497565
  grid = 40 40 40
  stencil order = 5
  estimated absolute RMS force accuracy = 0.00013990509
  estimated relative force accuracy = 9.7158711e-06
  using double precision KISS FFT
  3d grid and FFT values/proc = 24389 8000
Generated 0 of 21 mixed pair_coeff terms from geometric mixing rule
Per MPI rank memory allocation (min/avg/max) = 10.58 | 10.6 | 10.7 Mbytes
   Step          Temp          E_pair         E_mol          TotEng         Press     
         6   484.72953     -31454.932      1.5000404     -31385.763     -18430.822    
         7   592.38536     -31468.488      0.31701619    -31385.473     -19230.195    
Loop time of 0.038855 on 8 procs for 1 steps with 1081 atoms

run 1 pre yes post no
PPPM initialization ...
  using 12-bit tables for long-range coulomb (src/kspace.cpp:342)
  G vector (1/distance) = 0.34497565
  grid = 40 40 40
  stencil order = 5
  estimated absolute RMS force accuracy = 0.00013990509
  estimated relative force accuracy = 9.7158711e-06
  using double precision KISS FFT
  3d grid and FFT values/proc = 24389 8000
Generated 0 of 21 mixed pair_coeff terms from geometric mixing rule
Per MPI rank memory allocation (min/avg/max) = 10.58 | 10.6 | 10.7 Mbytes
   Step          Temp          E_pair         E_mol          TotEng         Press     
         7   592.38536     -31468.488      0.31701619    -31385.473     -19230.195    
         8   686.96393     -31481.394      0.18855252    -31385.305     -19980.808    
Loop time of 0.0393453 on 8 procs for 1 steps with 1081 atoms

run 1 pre yes post no
PPPM initialization ...
  using 12-bit tables for long-range coulomb (src/kspace.cpp:342)
  G vector (1/distance) = 0.34497565
  grid = 40 40 40
  stencil order = 5
  estimated absolute RMS force accuracy = 0.00013990509
  estimated relative force accuracy = 9.7158711e-06
  using double precision KISS FFT
  3d grid and FFT values/proc = 24389 8000
Generated 0 of 21 mixed pair_coeff terms from geometric mixing rule
Per MPI rank memory allocation (min/avg/max) = 10.58 | 10.6 | 10.7 Mbytes
   Step          Temp          E_pair         E_mol          TotEng         Press     
         8   686.96393     -31481.394      0.18855252    -31385.305     -19980.808    
         9   779.84372     -31492.877      0.52074847    -31383.489     -20503.674    
Loop time of 0.0391765 on 8 procs for 1 steps with 1081 atoms

run 1 pre yes post no
PPPM initialization ...
  using 12-bit tables for long-range coulomb (src/kspace.cpp:342)
  G vector (1/distance) = 0.34497565
  grid = 40 40 40
  stencil order = 5
  estimated absolute RMS force accuracy = 0.00013990509
  estimated relative force accuracy = 9.7158711e-06
  using double precision KISS FFT
  3d grid and FFT values/proc = 24389 8000
Generated 0 of 21 mixed pair_coeff terms from geometric mixing rule
Per MPI rank memory allocation (min/avg/max) = 10.58 | 10.6 | 10.7 Mbytes
   Step          Temp          E_pair         E_mol          TotEng         Press     
         9   779.84372     -31492.877      0.52074847    -31383.489     -20503.674    
        10   850.34884     -31501.244      2.3432269     -31380.191     -20493.369    
Loop time of 0.0394108 on 8 procs for 1 steps with 1081 atoms

run 1 pre yes post no
PPPM initialization ...
  using 12-bit tables for long-range coulomb (src/kspace.cpp:342)
  G vector (1/distance) = 0.34497565
  grid = 40 40 40
  stencil order = 5
  estimated absolute RMS force accuracy = 0.00013990509
  estimated relative force accuracy = 9.7158711e-06
  using double precision KISS FFT
  3d grid and FFT values/proc = 24389 8000
Generated 0 of 21 mixed pair_coeff terms from geometric mixing rule
Per MPI rank memory allocation (min/avg/max) = 10.58 | 10.6 | 10.7 Mbytes
   Step          Temp          E_pair         E_mol          TotEng         Press     
        10   850.34884     -31501.244      2.3432269     -31380.191     -20493.369    
        11   911.0075      -31508.779      1.9732869     -31379.629     -20989.23     
Loop time of 0.0402592 on 8 procs for 1 steps with 1081 atoms

run 1 pre yes post no
PPPM initialization ...
  using 12-bit tables for long-range coulomb (src/kspace.cpp:342)
  G vector (1/distance) = 0.34497565
  grid = 40 40 40
  stencil order = 5
  estimated absolute RMS force accuracy = 0.00013990509
  estimated relative force accuracy = 9.7158711e-06
  using double precision KISS FFT
  3d grid and FFT values/proc = 24389 8000
Generated 0 of 21 mixed pair_coeff terms from geometric mixing rule
Per MPI rank memory allocation (min/avg/max) = 10.58 | 10.6 | 10.7 Mbytes
   Step          Temp          E_pair         E_mol          TotEng         Press     
        11   911.0075      -31508.779      1.9732869     -31379.629     -20989.23     
        12   955.137       -31512.435      0.39024018    -31378.707     -20646.974    
Loop time of 0.0395929 on 8 procs for 1 steps with 1081 atoms

run 1 pre yes post no
PPPM initialization ...
  using 12-bit tables for long-range coulomb (src/kspace.cpp:342)
  G vector (1/distance) = 0.34497565
  grid = 40 40 40
  stencil order = 5
  estimated absolute RMS force accuracy = 0.00013990509
  estimated relative force accuracy = 9.7158711e-06
  using double precision KISS FFT
  3d grid and FFT values/proc = 24389 8000
Generated 0 of 21 mixed pair_coeff terms from geometric mixing rule
Per MPI rank memory allocation (min/avg/max) = 10.58 | 10.6 | 10.7 Mbytes
   Step          Temp          E_pair         E_mol          TotEng         Press     
        12   955.137       -31512.435      0.39024018    -31378.707     -20646.974    
        13   970.25427     -31513.623      3.6069899e-05 -31378.175     -20087.817    
Loop time of 0.0404324 on 8 procs for 1 steps with 1081 atoms

run 1 pre yes post no
PPPM initialization ...
  using 12-bit tables for long-range coulomb (src/kspace.cpp:342)
  G vector (1/distance) = 0.34497565
  grid = 40 40 40
  stencil order = 5
  estimated absolute RMS force accuracy = 0.00013990509
  estimated relative force accuracy = 9.7158711e-06
  using double precision KISS FFT
  3d grid and FFT values/proc = 24389 8000
Generated 0 of 21 mixed pair_coeff terms from geometric mixing rule
Per MPI rank memory allocation (min/avg/max) = 10.58 | 10.6 | 10.7 Mbytes
   Step          Temp          E_pair         E_mol          TotEng         Press     
        13   970.25427     -31513.623      3.6069899e-05 -31378.175     -20087.817    
        14   973.81383     -31513.111      0.087825028   -31377.077     -19460.923    
Loop time of 0.0393755 on 8 procs for 1 steps with 1081 atoms

run 1 pre no post no
   Step          Temp          E_pair         E_mol          TotEng         Press     
        14   973.81383     -31513.111      0.087825028   -31377.077     -19460.923    
        15   966.57359     -31511.262      0.027000744   -31376.301     -18854.605    
Loop time of 0.0372611 on 8 procs for 1 steps with 1081 atoms

run 1 pre no post no
   Step          Temp          E_pair         E_mol          TotEng         Press     
        15   966.57359     -31511.262      0.027000744   -31376.301     -18854.605    
        16   943.54066     -31508.506      0.078619228   -31376.708     -18387.595    
Loop time of 0.0383318 on 8 procs for 1 steps with 1081 atoms

run 1 pre yes post no
PPPM initialization ...
  using 12-bit tables for long-range coulomb (src/kspace.cpp:342)
  G vector (1/distance) = 0.34497565
  grid = 40 40 40
  stencil order = 5
  estimated absolute RMS force accuracy = 0.00013990509
  estimated relative force accuracy = 9.7158711e-06
  using double precision KISS FFT
  3d grid and FFT values/proc = 24389 8000
Generated 0 of 21 mixed pair_coeff terms from geometric mixing rule
Per MPI rank memory allocation (min/avg/max) = 10.58 | 10.6 | 10.7 Mbytes
   Step          Temp          E_pair         E_mol          TotEng         Press     
        16   943.54066     -31508.506      0.078619228   -31376.708     -18387.595    
        17   930.52061     -31505.317      0.5844268     -31374.831     -17857.537    
Loop time of 0.0367932 on 8 procs for 1 steps with 1081 atoms

run 1 pre no post no
   Step          Temp          E_pair         E_mol          TotEng         Press     
        17   930.52061     -31505.317      0.5844268     -31374.831     -17857.537    
        18   914.2176      -31502.035      1.0579402     -31373.352     -17348.395    
Loop time of 0.0365511 on 8 procs for 1 steps with 1081 atoms

run 1 pre no post no
   Step          Temp          E_pair         E_mol          TotEng         Press     
        18   914.2176      -31502.035      1.0579402     -31373.352     -17348.395    
        19   899.22638     -31498.986      0.85377756    -31372.599     -16797.715    
Loop time of 0.0634435 on 8 procs for 1 steps with 1081 atoms

run 1 pre no post no
   Step          Temp          E_pair         E_mol          TotEng         Press     
        19   899.22638     -31498.986      0.85377756    -31372.599     -16797.715    
        20   891.21167     -31496.575      0.21993856    -31371.941     -16231.033    
Loop time of 0.0417269 on 8 procs for 1 steps with 1081 atoms

run 1 pre yes post no
PPPM initialization ...
  using 12-bit tables for long-range coulomb (src/kspace.cpp:342)
  G vector (1/distance) = 0.34497565
  grid = 40 40 40
  stencil order = 5
  estimated absolute RMS force accuracy = 0.00013990509
  estimated relative force accuracy = 9.7158711e-06
  using double precision KISS FFT
  3d grid and FFT values/proc = 24389 8000
Generated 0 of 21 mixed pair_coeff terms from geometric mixing rule
Per MPI rank memory allocation (min/avg/max) = 10.58 | 10.6 | 10.7 Mbytes
   Step          Temp          E_pair         E_mol          TotEng         Press     
        20   891.21167     -31496.575      0.21993856    -31371.941     -16231.033    
        21   892.24558     -31495.141      0.024702567   -31370.558     -15775.007    
Loop time of 0.0386649 on 8 procs for 1 steps with 1081 atoms

run 1 pre no post no
   Step          Temp          E_pair         E_mol          TotEng         Press     
        21   892.24558     -31495.141      0.024702567   -31370.558     -15775.007    
        22   892.96712     -31494.753      0.44891787    -31369.645     -15622.334    
Loop time of 0.0387858 on 8 procs for 1 steps with 1081 atoms

run 1 pre no post no
   Step          Temp          E_pair         E_mol          TotEng         Press     
        22   892.96712     -31494.753      0.44891787    -31369.645     -15622.334    
        23   904.0048      -31495.33       0.61751139    -31368.512     -15692.332    
Loop time of 0.0388268 on 8 procs for 1 steps with 1081 atoms

run 1 pre no post no
   Step          Temp          E_pair         E_mol          TotEng         Press     
        23   904.0048      -31495.33       0.61751139    -31368.512     -15692.332    
        24   927.93283     -31496.788      0.14006738    -31367.108     -15947.618    
Loop time of 0.0387644 on 8 procs for 1 steps with 1081 atoms

run 1 pre yes post no
PPPM initialization ...
  using 12-bit tables for long-range coulomb (src/kspace.cpp:342)
  G vector (1/distance) = 0.34497565
  grid = 40 40 40
  stencil order = 5
  estimated absolute RMS force accuracy = 0.00013990509
  estimated relative force accuracy = 9.7158711e-06
  using double precision KISS FFT
  3d grid and FFT values/proc = 24389 8000
Generated 0 of 21 mixed pair_coeff terms from geometric mixing rule
Per MPI rank memory allocation (min/avg/max) = 10.58 | 10.6 | 10.7 Mbytes
   Step          Temp          E_pair         E_mol          TotEng         Press     
        24   927.93283     -31496.788      0.14006738    -31367.108     -15947.618    
        25   938.30379     -31498.916      0.18971237    -31367.738     -16617.202    
Loop time of 0.0397781 on 8 procs for 1 steps with 1081 atoms

run 1 pre no post no
   Step          Temp          E_pair         E_mol          TotEng         Press     
        25   938.30379     -31498.916      0.18971237    -31367.738     -16617.202    
        26   952.2336      -31501.158      1.6404893     -31366.585     -17417.003    
Loop time of 0.0382421 on 8 procs for 1 steps with 1081 atoms

run 1 pre no post no
   Step          Temp          E_pair         E_mol          TotEng         Press     
        26   952.2336      -31501.158      1.6404893     -31366.585     -17417.003    
        27   961.49723     -31503.177      4.9023968     -31364.049     -18357.212    
Loop time of 0.0388229 on 8 procs for 1 steps with 1081 atoms

run 1 pre no post no
   Step          Temp          E_pair         E_mol          TotEng         Press     
        27   961.49723     -31503.177      4.9023968     -31364.049     -18357.212    
        28   993.03192     -31504.476      3.7760809     -31362.071     -18648.139    
Loop time of 0.0383318 on 8 procs for 1 steps with 1081 atoms

run 1 pre yes post no
PPPM initialization ...
  using 12-bit tables for long-range coulomb (src/kspace.cpp:342)
  G vector (1/distance) = 0.34497565
  grid = 40 40 40
  stencil order = 5
  estimated absolute RMS force accuracy = 0.00013990509
  estimated relative force accuracy = 9.7158711e-06
  using double precision KISS FFT
  3d grid and FFT values/proc = 24389 8000
Generated 0 of 21 mixed pair_coeff terms from geometric mixing rule
Per MPI rank memory allocation (min/avg/max) = 10.58 | 10.6 | 10.7 Mbytes
   Step          Temp          E_pair         E_mol          TotEng         Press     
        28   993.03192     -31504.476      3.7760809     -31362.071     -18648.139    
        29   1015.7462     -31504.905      0.91701148    -31362.189     -18574.019    
Loop time of 0.0391054 on 8 procs for 1 steps with 1081 atoms

run 1 pre no post no
   Step          Temp          E_pair         E_mol          TotEng         Press     
        29   1015.7462     -31504.905      0.91701148    -31362.189     -18574.019    
        30   1013.5063     -31504.814      0.040627192   -31363.287     -18691.485    
Loop time of 0.0393813 on 8 procs for 1 steps with 1081 atoms

run 1 pre no post no
   Step          Temp          E_pair         E_mol          TotEng         Press     
        30   1013.5063     -31504.814      0.040627192   -31363.287     -18691.485    
        31   1012.6495     -31504.38       1.101233      -31361.912     -18939.79     
Loop time of 0.0400033 on 8 procs for 1 steps with 1081 atoms

run 1 pre no post no
   Step          Temp          E_pair         E_mol          TotEng         Press     
        31   1012.6495     -31504.38       1.101233      -31361.912     -18939.79     
        32   1017.5657     -31503.697      1.2857573     -31360.358     -19245.968    
Loop time of 0.0359108 on 8 procs for 1 steps with 1081 atoms

run 1 pre yes post no
PPPM initialization ...
  using 12-bit tables for long-range coulomb (src/kspace.cpp:342)
  G vector (1/distance) = 0.34497565
  grid = 40 40 40
  stencil order = 5
  estimated absolute RMS force accuracy = 0.00013990509
  estimated relative force accuracy = 9.7158711e-06
  using double precision KISS FFT
  3d grid and FFT values/proc = 24389 8000
Generated 0 of 21 mixed pair_coeff terms from geometric mixing rule
Per MPI rank memory allocation (min/avg/max) = 10.58 | 10.6 | 10.7 Mbytes
   Step          Temp          E_pair         E_mol          TotEng         Press     
        32   1017.5657     -31503.697      1.2857573     -31360.358     -19245.968    
        33   1026.3699     -31502.78       0.17913371    -31359.319     -19613.482    
Loop time of 0.0373755 on 8 procs for 1 steps with 1081 atoms

run 1 pre no post no
   Step          Temp          E_pair         E_mol          TotEng         Press     
        33   1026.3699     -31502.78       0.17913371    -31359.319     -19613.482    
        34   1011.8379     -31501.684      0.44152969    -31359.989     -20348.367    
Loop time of 0.0367451 on 8 procs for 1 steps with 1081 atoms

run 1 pre no post no
   Step          Temp          E_pair         E_mol          TotEng         Press     
        34   1011.8379     -31501.684      0.44152969    -31359.989     -20348.367    
        35   998.7977      -31500.49       2.4374954     -31358.62      -21089.865    
Loop time of 0.0364113 on 8 procs for 1 steps with 1081 atoms

run 1 pre no post no
   Step          Temp          E_pair         E_mol          TotEng         Press     
        35   998.7977      -31500.49       2.4374954     -31358.62      -21089.865    
        36   991.99245     -31499.166      3.3995173     -31357.283     -21502.302    
Loop time of 0.0373858 on 8 procs for 1 steps with 1081 atoms

run 1 pre yes post no
PPPM initialization ...
  using 12-bit tables for long-range coulomb (src/kspace.cpp:342)
  G vector (1/distance) = 0.34497565
  grid = 40 40 40
  stencil order = 5
  estimated absolute RMS force accuracy = 0.00013990509
  estimated relative force accuracy = 9.7158711e-06
  using double precision KISS FFT
  3d grid and FFT values/proc = 24389 8000
Generated 0 of 21 mixed pair_coeff terms from geometric mixing rule
Per MPI rank memory allocation (min/avg/max) = 10.58 | 10.6 | 10.7 Mbytes
   Step          Temp          E_pair         E_mol          TotEng         Press     
        36   991.99245     -31499.166      3.3995173     -31357.283     -21502.302    
        37   991.66287     -31497.753      1.9018411     -31357.414     -21460.768    
Loop time of 0.0389896 on 8 procs for 1 steps with 1081 atoms

run 1 pre no post no
   Step          Temp          E_pair         E_mol          TotEng         Press     
        37   991.66287     -31497.753      1.9018411     -31357.414     -21460.768    
        38   998.74232     -31496.523      0.13491213    -31356.963     -21167.475    
Loop time of 0.0375357 on 8 procs for 1 steps with 1081 atoms

run 1 pre no post no
   Step          Temp          E_pair         E_mol          TotEng         Press     
        38   998.74232     -31496.523      0.13491213    -31356.963     -21167.475    
        39   996.25311     -31495.703      0.54094728    -31356.084     -21076.746    
Loop time of 0.0371227 on 8 procs for 1 steps with 1081 atoms

run 1 pre no post no
   Step          Temp          E_pair         E_mol          TotEng         Press     
        39   996.25311     -31495.703      0.54094728    -31356.084     -21076.746    
        40   985.04736     -31495.289      1.9743065     -31355.801     -21250.738    
Loop time of 0.036347 on 8 procs for 1 steps with 1081 atoms

run 1 pre yes post no
PPPM initialization ...
  using 12-bit tables for long-range coulomb (src/kspace.cpp:342)
  G vector (1/distance) = 0.34497565
  grid = 40 40 40
  stencil order = 5
  estimated absolute RMS force accuracy = 0.00013990509
  estimated relative force accuracy = 9.7158711e-06
  using double precision KISS FFT
  3d grid and FFT values/proc = 24389 8000
Generated 0 of 21 mixed pair_coeff terms from geometric mixing rule
Per MPI rank memory allocation (min/avg/max) = 10.58 | 10.6 | 10.7 Mbytes
   Step          Temp          E_pair         E_mol          TotEng         Press     
        40   985.04736     -31495.289      1.9743065     -31355.801     -21250.738    
        41   991.50422     -31495.197      1.7045424     -31355.077     -21351.295    
Loop time of 0.0382412 on 8 procs for 1 steps with 1081 atoms

run 1 pre no post no
   Step          Temp          E_pair         E_mol          TotEng         Press     
        41   991.50422     -31495.197      1.7045424     -31355.077     -21351.295    
        42   1009.2766     -31495.305      0.25235233    -31354.157     -21433.029    
Loop time of 0.0392863 on 8 procs for 1 steps with 1081 atoms

run 1 pre no post no
   Step          Temp          E_pair         E_mol          TotEng         Press     
        42   1009.2766     -31495.305      0.25235233    -31354.157     -21433.029    
        43   1023.6888     -31495.487      0.34558016    -31352.233     -21665.441    
Loop time of 0.038872 on 8 procs for 1 steps with 1081 atoms

run 1 pre no post no
   Step          Temp          E_pair         E_mol          TotEng         Press     
        43   1023.6888     -31495.487      0.34558016    -31352.233     -21665.441    
        44   1013.7928     -31495.625      2.0644049     -31352.034     -22069.852    
Loop time of 0.0361823 on 8 procs for 1 steps with 1081 atoms

run 1 pre yes post no
PPPM initialization ...
  using 12-bit tables for long-range coulomb (src/kspace.cpp:342)
  G vector (1/distance) = 0.34497565
  grid = 40 40 40
  stencil order = 5
  estimated absolute RMS force accuracy = 0.00013990509
  estimated relative force accuracy = 9.7158711e-06
  using double precision KISS FFT
  3d grid and FFT values/proc = 24389 8000
Generated 0 of 21 mixed pair_coeff terms from geometric mixing rule
Per MPI rank memory allocation (min/avg/max) = 10.58 | 10.6 | 10.7 Mbytes
   Step          Temp          E_pair         E_mol          TotEng         Press     
        44   1013.7928     -31495.625      2.0644049     -31352.034     -22069.852    
        45   1015.2811     -31495.569      2.6953949     -31351.139     -22006.532    
Loop time of 0.0367394 on 8 procs for 1 steps with 1081 atoms

run 1 pre no post no
   Step          Temp          E_pair         E_mol          TotEng         Press     
        45   1015.2811     -31495.569      2.6953949     -31351.139     -22006.532    
        46   1025.663      -31495.196      1.2385735     -31350.774     -21401.236    
Loop time of 0.0366243 on 8 procs for 1 steps with 1081 atoms

run 1 pre no post no
   Step          Temp          E_pair         E_mol          TotEng         Press     
        46   1025.663      -31495.196      1.2385735     -31350.774     -21401.236    
        47   1032.8343     -31494.497      0.010479891   -31350.302     -20602.04     
Loop time of 0.0372968 on 8 procs for 1 steps with 1081 atoms

run 1 pre no post no
   Step          Temp          E_pair         E_mol          TotEng         Press     
        47   1032.8343     -31494.497      0.010479891   -31350.302     -20602.04     
        48   1023.8386     -31493.51       0.81181335    -31349.769     -20014.149    
Loop time of 0.0368535 on 8 procs for 1 steps with 1081 atoms

run 1 pre yes post no
PPPM initialization ...
  using 12-bit tables for long-range coulomb (src/kspace.cpp:342)
  G vector (1/distance) = 0.34497565
  grid = 40 40 40
  stencil order = 5
  estimated absolute RMS force accuracy = 0.00013990509
  estimated relative force accuracy = 9.7158711e-06
  using double precision KISS FFT
  3d grid and FFT values/proc = 24389 8000
Generated 0 of 21 mixed pair_coeff terms from geometric mixing rule
Per MPI rank memory allocation (min/avg/max) = 10.58 | 10.6 | 10.7 Mbytes
   Step          Temp          E_pair         E_mol          TotEng         Press     
        48   1023.8386     -31493.51       0.81181335    -31349.769     -20014.149    
        49   1005.4859     -31492.313      1.9203874     -31350.026     -19648.187    
Loop time of 0.0371657 on 8 procs for 1 steps with 1081 atoms

run 1 pre no post no
   Step          Temp          E_pair         E_mol          TotEng         Press     
        49   1005.4859     -31492.313      1.9203874     -31350.026     -19648.187    
        50   1001.2376     -31491.068      1.1877819     -31350.106     -19269.464    
Loop time of 0.0373144 on 8 procs for 1 steps with 1081 atoms

run 1 pre no post no
   Step          Temp          E_pair         E_mol          TotEng         Press     
        50   1001.2376     -31491.068      1.1877819     -31350.106     -19269.464    
        51   1002.7461     -31489.96       0.029864724   -31349.946     -19042.027    
Loop time of 0.0330327 on 8 procs for 1 steps with 1081 atoms

run 1 pre no post no
   Step          Temp          E_pair         E_mol          TotEng         Press     
        51   1002.7461     -31489.96       0.029864724   -31349.946     -19042.027    
        52   1003.4104     -31489.131      0.81113937    -31348.243     -19077.269    
Loop time of 0.0371856 on 8 procs for 1 steps with 1081 atoms

run 1 pre yes post no
PPPM initialization ...
  using 12-bit tables for long-range coulomb (src/kspace.cpp:342)
  G vector (1/distance) = 0.34497565
  grid = 40 40 40
  stencil order = 5
  estimated absolute RMS force accuracy = 0.00013990509
  estimated relative force accuracy = 9.7158711e-06
  using double precision KISS FFT
  3d grid and FFT values/proc = 24389 8000
Generated 0 of 21 mixed pair_coeff terms from geometric mixing rule
Per MPI rank memory allocation (min/avg/max) = 10.58 | 10.6 | 10.7 Mbytes
   Step          Temp          E_pair         E_mol          TotEng         Press     
        52   1003.4104     -31489.131      0.81113937    -31348.243     -19077.269    
        53   989.51131     -31488.642      2.6096722     -31347.895     -19309.57     
Loop time of 0.0371208 on 8 procs for 1 steps with 1081 atoms

run 1 pre no post no
   Step          Temp          E_pair         E_mol          TotEng         Press     
        53   989.51131     -31488.642      2.6096722     -31347.895     -19309.57     
        54   991.70929     -31488.527      2.6516654     -31347.431     -19189.972    
Loop time of 0.036674 on 8 procs for 1 steps with 1081 atoms

run 1 pre no post no
   Step          Temp          E_pair         E_mol          TotEng         Press     
        54   991.70929     -31488.527      2.6516654     -31347.431     -19189.972    
        55   1010.4044     -31488.835      0.87409837    -31346.907     -18719.162    
Loop time of 0.0377606 on 8 procs for 1 steps with 1081 atoms

run 1 pre no post no
   Step          Temp          E_pair         E_mol          TotEng         Press     
        55   1010.4044     -31488.835      0.87409837    -31346.907     -18719.162    
        56   1030.0326     -31489.622      0.018418649   -31345.81      -18320.157    
Loop time of 0.0366125 on 8 procs for 1 steps with 1081 atoms

run 1 pre yes post no
PPPM initialization ...
  using 12-bit tables for long-range coulomb (src/kspace.cpp:342)
  G vector (1/distance) = 0.34497565
  grid = 40 40 40
  stencil order = 5
  estimated absolute RMS force accuracy = 0.00013990509
  estimated relative force accuracy = 9.7158711e-06
  using double precision KISS FFT
  3d grid and FFT values/proc = 24389 8000
Generated 0 of 21 mixed pair_coeff terms from geometric mixing rule
Per MPI rank memory allocation (min/avg/max) = 10.58 | 10.6 | 10.7 Mbytes
   Step          Temp          E_pair         E_mol          TotEng         Press     
        56   1030.0326     -31489.622      0.018418649   -31345.81      -18320.157    
        57   1034.4485     -31490.926      1.1550511     -31345.361     -18353.012    
Loop time of 0.0390621 on 8 procs for 1 steps with 1081 atoms

run 1 pre no post no
   Step          Temp          E_pair         E_mol          TotEng         Press     
        57   1034.4485     -31490.926      1.1550511     -31345.361     -18353.012    
        58   1051.0075     -31492.664      2.0419976     -31343.901     -18527.458    
Loop time of 0.0394678 on 8 procs for 1 steps with 1081 atoms

run 1 pre no post no
   Step          Temp          E_pair         E_mol          TotEng         Press     
        58   1051.0075     -31492.664      2.0419976     -31343.901     -18527.458    
        59   1078.5344     -31494.674      1.0751952     -31343.034     -18756.824    
Loop time of 0.0369642 on 8 procs for 1 steps with 1081 atoms

run 1 pre no post no
   Step          Temp          E_pair         E_mol          TotEng         Press     
        59   1078.5344     -31494.674      1.0751952     -31343.034     -18756.824    
        60   1099.3187     -31496.802      0.010423816   -31343.326     -19206.27     
Loop time of 0.0369772 on 8 procs for 1 steps with 1081 atoms

run 1 pre yes post no
PPPM initialization ...
  using 12-bit tables for long-range coulomb (src/kspace.cpp:342)
  G vector (1/distance) = 0.34497565
  grid = 40 40 40
  stencil order = 5
  estimated absolute RMS force accuracy = 0.00013990509
  estimated relative force accuracy = 9.7158711e-06
  using double precision KISS FFT
  3d grid and FFT values/proc = 24389 8000
Generated 0 of 21 mixed pair_coeff terms from geometric mixing rule
Per MPI rank memory allocation (min/avg/max) = 10.58 | 10.6 | 10.7 Mbytes
   Step          Temp          E_pair         E_mol          TotEng         Press     
        60   1099.3187     -31496.802      0.010423816   -31343.326     -19206.27     
        61   1113.5542     -31498.9        0.86842362    -31342.578     -19818.078    
Loop time of 0.0368584 on 8 procs for 1 steps with 1081 atoms

run 1 pre no post no
   Step          Temp          E_pair         E_mol          TotEng         Press     
        61   1113.5542     -31498.9        0.86842362    -31342.578     -19818.078    
        62   1123.8174     -31500.645      2.5798054     -31341.179     -20306.646    
Loop time of 0.0394499 on 8 procs for 1 steps with 1081 atoms

run 1 pre no post no
   Step          Temp          E_pair         E_mol          TotEng         Press     
        62   1123.8174     -31500.645      2.5798054     -31341.179     -20306.646    
        63   1135.4819     -31501.602      2.6484555     -31340.439     -20325.413    
Loop time of 0.0612978 on 8 procs for 1 steps with 1081 atoms

run 1 pre no post no
   Step          Temp          E_pair         E_mol          TotEng         Press     
        63   1135.4819     -31501.602      2.6484555     -31340.439     -20325.413    
        64   1160.5314     -31501.599      1.0765411     -31338.511     -19753.275    
Loop time of 0.0381721 on 8 procs for 1 steps with 1081 atoms

run 1 pre yes post no
PPPM initialization ...
  using 12-bit tables for long-range coulomb (src/kspace.cpp:342)
  G vector (1/distance) = 0.34497565
  grid = 40 40 40
  stencil order = 5
  estimated absolute RMS force accuracy = 0.00013990509
  estimated relative force accuracy = 9.7158711e-06
  using double precision KISS FFT
  3d grid and FFT values/proc = 24389 8000
Generated 0 of 21 mixed pair_coeff terms from geometric mixing rule
Per MPI rank memory allocation (min/avg/max) = 10.58 | 10.6 | 10.7 Mbytes
   Step          Temp          E_pair         E_mol          TotEng         Press     
        64   1160.5314     -31501.599      1.0765411     -31338.511     -19753.275    
        65   1164.9964     -31500.695      0.0021767329  -31338.058     -19100.281    
Loop time of 0.0400586 on 8 procs for 1 steps with 1081 atoms

run 1 pre no post no
   Step          Temp          E_pair         E_mol          TotEng         Press     
        65   1164.9964     -31500.695      0.0021767329  -31338.058     -19100.281    
        66   1145.9254     -31499.044      0.79962533    -31338.272     -18638.467    
Loop time of 0.0373333 on 8 procs for 1 steps with 1081 atoms

run 1 pre no post no
   Step          Temp          E_pair         E_mol          TotEng         Press     
        66   1145.9254     -31499.044      0.79962533    -31338.272     -18638.467    
        67   1128.6735     -31496.78       1.8082923     -31337.408     -18196.083    
Loop time of 0.0370262 on 8 procs for 1 steps with 1081 atoms

run 1 pre no post no
   Step          Temp          E_pair         E_mol          TotEng         Press     
        67   1128.6735     -31496.78       1.8082923     -31337.408     -18196.083    
        68   1118.8425     -31494.07       1.1758077     -31336.702     -17711.546    
Loop time of 0.0379053 on 8 procs for 1 steps with 1081 atoms

run 1 pre yes post no
PPPM initialization ...
  using 12-bit tables for long-range coulomb (src/kspace.cpp:342)
  G vector (1/distance) = 0.34497565
  grid = 40 40 40
  stencil order = 5
  estimated absolute RMS force accuracy = 0.00013990509
  estimated relative force accuracy = 9.7158711e-06
  using double precision KISS FFT
  3d grid and FFT values/proc = 24389 8000
Generated 0 of 21 mixed pair_coeff terms from geometric mixing rule
Per MPI rank memory allocation (min/avg/max) = 10.58 | 10.6 | 10.7 Mbytes
   Step          Temp          E_pair         E_mol          TotEng         Press     
        68   1118.8425     -31494.07       1.1758077     -31336.702     -17711.546    
        69   1103.0261     -31491.102      0.052278257   -31337.067     -17400.381    
Loop time of 0.0381027 on 8 procs for 1 steps with 1081 atoms

run 1 pre no post no
   Step          Temp          E_pair         E_mol          TotEng         Press     
        69   1103.0261     -31491.102      0.052278257   -31337.067     -17400.381    
        70   1080.8755     -31488.013      0.66301008    -31336.458     -17343.708    
Loop time of 0.0368812 on 8 procs for 1 steps with 1081 atoms

run 1 pre no post no
   Step          Temp          E_pair         E_mol          TotEng         Press     
        70   1080.8755     -31488.013      0.66301008    -31336.458     -17343.708    
        71   1055.1341     -31484.888      2.3964888     -31335.194     -17376.032    
Loop time of 0.0367939 on 8 procs for 1 steps with 1081 atoms

run 1 pre no post no
   Step          Temp          E_pair         E_mol          TotEng         Press     
        71   1055.1341     -31484.888      2.3964888     -31335.194     -17376.032    
        72   1039.3302     -31481.884      2.6242016     -31334.168     -17141.044    
Loop time of 0.062062 on 8 procs for 1 steps with 1081 atoms

run 1 pre yes post no
PPPM initialization ...
  using 12-bit tables for long-range coulomb (src/kspace.cpp:342)
  G vector (1/distance) = 0.34497565
  grid = 40 40 40
  stencil order = 5
  estimated absolute RMS force accuracy = 0.00013990509
  estimated relative force accuracy = 9.7158711e-06
  using double precision KISS FFT
  3d grid and FFT values/proc = 24389 8000
Generated 0 of 21 mixed pair_coeff terms from geometric mixing rule
Per MPI rank memory allocation (min/avg/max) = 10.58 | 10.6 | 10.7 Mbytes
   Step          Temp          E_pair         E_mol          TotEng         Press     
        72   1039.3302     -31481.884      2.6242016     -31334.168     -17141.044    
        73   1034.3521     -31479.171      0.9910928     -31333.783     -16637.118    
Loop time of 0.040419 on 8 procs for 1 steps with 1081 atoms

run 1 pre no post no
   Step          Temp          E_pair         E_mol          TotEng         Press     
        73   1034.3521     -31479.171      0.9910928     -31333.783     -16637.118    
        74   1027.609      -31476.898      0.0005301314  -31333.443     -16263.969    
Loop time of 0.0370251 on 8 procs for 1 steps with 1081 atoms

run 1 pre no post no
   Step          Temp          E_pair         E_mol          TotEng         Press     
        74   1027.609      -31476.898      0.0005301314  -31333.443     -16263.969    
        75   1015.4796     -31475.241      0.88037687    -31332.599     -16299.787    
Loop time of 0.0367748 on 8 procs for 1 steps with 1081 atoms

run 1 pre no post no
   Step          Temp          E_pair         E_mol          TotEng         Press     
        75   1015.4796     -31475.241      0.88037687    -31332.599     -16299.787    
        76   1007.8434     -31474.342      1.6813485     -31331.965     -16657.589    
Loop time of 0.0363782 on 8 procs for 1 steps with 1081 atoms

run 1 pre yes post no
PPPM initialization ...
  using 12-bit tables for long-range coulomb (src/kspace.cpp:342)
  G vector (1/distance) = 0.34497565
  grid = 40 40 40
  stencil order = 5
  estimated absolute RMS force accuracy = 0.00013990509
  estimated relative force accuracy = 9.7158711e-06
  using double precision KISS FFT
  3d grid and FFT values/proc = 24389 8000
Generated 0 of 21 mixed pair_coeff terms from geometric mixing rule
Per MPI rank memory allocation (min/avg/max) = 10.58 | 10.6 | 10.7 Mbytes
   Step          Temp          E_pair         E_mol          TotEng         Press     
        76   1007.8434     -31474.342      1.6813485     -31331.965     -16657.589    
        77   1022.7603     -31474.213      0.83220183    -31330.603     -17096.639    
Loop time of 0.0381027 on 8 procs for 1 steps with 1081 atoms

run 1 pre no post no
   Step          Temp          E_pair         E_mol          TotEng         Press     
        77   1022.7603     -31474.213      0.83220183    -31330.603     -17096.639    
        78   1040.2978     -31474.696      0.0011204421  -31329.469     -17806.177    
Loop time of 0.0363955 on 8 procs for 1 steps with 1081 atoms

run 1 pre no post no
   Step          Temp          E_pair         E_mol          TotEng         Press     
        78   1040.2978     -31474.696      0.0011204421  -31329.469     -17806.177    
        79   1049.235      -31475.456      1.1871529     -31327.794     -18815.433    
Loop time of 0.0596819 on 8 procs for 1 steps with 1081 atoms

run 1 pre no post no
   Step          Temp          E_pair         E_mol          TotEng         Press     
        79   1049.235      -31475.456      1.1871529     -31327.794     -18815.433    
        80   1046.9632     -31476.072      3.1114523     -31326.804     -19841.613    
Loop time of 0.039946 on 8 procs for 1 steps with 1081 atoms

run 1 pre yes post no
PPPM initialization ...
  using 12-bit tables for long-range coulomb (src/kspace.cpp:342)
  G vector (1/distance) = 0.34497565
  grid = 40 40 40
  stencil order = 5
  estimated absolute RMS force accuracy = 0.00013990509
  estimated relative force accuracy = 9.7158711e-06
  using double precision KISS FFT
  3d grid and FFT values/proc = 24389 8000
Generated 0 of 21 mixed pair_coeff terms from geometric mixing rule
Per MPI rank memory allocation (min/avg/max) = 10.58 | 10.6 | 10.7 Mbytes
   Step          Temp          E_pair         E_mol          TotEng         Press     
        80   1046.9632     -31476.072      3.1114523     -31326.804     -19841.613    
        81   1053.0473     -31476.552      5.0579304     -31324.488     -20635.857    
Loop time of 0.039359 on 8 procs for 1 steps with 1081 atoms

run 1 pre no post no
   Step          Temp          E_pair         E_mol          TotEng         Press     
        81   1053.0473     -31476.552      5.0579304     -31324.488     -20635.857    
        82   1071.2774     -31476.206      3.0009841     -31323.654     -20630.455    
Loop time of 0.0385771 on 8 procs for 1 steps with 1081 atoms

run 1 pre no post no
   Step          Temp          E_pair         E_mol          TotEng         Press     
        82   1071.2774     -31476.206      3.0009841     -31323.654     -20630.455    
        83   1088.3311     -31475.171      0.73277591    -31322.506     -20368.263    
Loop time of 0.0391754 on 8 procs for 1 steps with 1081 atoms

run 1 pre no post no
   Step          Temp          E_pair         E_mol          TotEng         Press     
        83   1088.3311     -31475.171      0.73277591    -31322.506     -20368.263    
        84   1083.4676     -31473.794      0.36293314    -31322.178     -20389.053    
Loop time of 0.0395359 on 8 procs for 1 steps with 1081 atoms

run 1 pre yes post no
PPPM initialization ...
  using 12-bit tables for long-range coulomb (src/kspace.cpp:342)
  G vector (1/distance) = 0.34497565
  grid = 40 40 40
  stencil order = 5
  estimated absolute RMS force accuracy = 0.00013990509
  estimated relative force accuracy = 9.7158711e-06
  using double precision KISS FFT
  3d grid and FFT values/proc = 24389 8000
Generated 0 of 21 mixed pair_coeff terms from geometric mixing rule
Per MPI rank memory allocation (min/avg/max) = 10.58 | 10.6 | 10.7 Mbytes
   Step          Temp          E_pair         E_mol          TotEng         Press     
        84   1083.4676     -31473.794      0.36293314    -31322.178     -20389.053    
        85   1088.191      -31471.958      1.1798107     -31318.865     -20291.861    
Loop time of 0.0398797 on 8 procs for 1 steps with 1081 atoms

run 1 pre no post no
   Step          Temp          E_pair         E_mol          TotEng         Press     
        85   1088.191      -31471.958      1.1798107     -31318.865     -20291.861    
        86   1093.3146     -31469.203      3.3806973     -31313.194     -19932.348    
Loop time of 0.0397353 on 8 procs for 1 steps with 1081 atoms

run 0 pre yes post no
PPPM initialization ...
  using 12-bit tables for long-range coulomb (src/kspace.cpp:342)
  G vector (1/distance) = 0.34497565
  grid = 40 40 40
  stencil order = 5
  estimated absolute RMS force accuracy = 0.00013990509
  estimated relative force accuracy = 9.7158711e-06
  using double precision KISS FFT
  3d grid and FFT values/proc = 24389 8000
Generated 0 of 21 mixed pair_coeff terms from geometric mixing rule
Per MPI rank memory allocation (min/avg/max) = 10.58 | 10.6 | 10.7 Mbytes
   Step          Temp          E_pair         E_mol          TotEng         Press     
        86   1093.3146     -31469.203      3.3806973     -31313.194     -19932.348    
Loop time of 5.00175e-06 on 8 procs for 0 steps with 1081 atoms

group HXY id 1 13 11 
3 atoms in group HXY
delete_bonds HXY multi remove
System init for delete_bonds ...
PPPM initialization ...
  using 12-bit tables for long-range coulomb (src/kspace.cpp:342)
  G vector (1/distance) = 0.34497565
  grid = 40 40 40
  stencil order = 5
  estimated absolute RMS force accuracy = 0.00013990509
  estimated relative force accuracy = 9.7158711e-06
  using double precision KISS FFT
  3d grid and FFT values/proc = 24389 8000
Generated 0 of 21 mixed pair_coeff terms from geometric mixing rule
Deleting bonds ...
  0 total bonds, 0 turned on, 0 turned off
  0 total angles, 0 turned on, 0 turned off
  0 total dihedrals, 0 turned on, 0 turned off
  0 total impropers, 0 turned on, 0 turned off

set atom 1 type 7
Setting atom values ...
  1 settings made for type
set atom 1 charge 0.308698
Setting atom values ...
  1 settings made for charge
set atom 11 type 4
Setting atom values ...
  1 settings made for type
set atom 11 charge -1.308698
Setting atom values ...
  1 settings made for charge
set atom 13 type 5
Setting atom values ...
  1 settings made for type
set atom 13 charge -2.0
Setting atom values ...
  1 settings made for charge
set atom 11 image 0 0 0
Setting atom values ...
  1 settings made for image
create_bonds single/bond 1 11 1 special yes
Finding 1-2 1-3 1-4 neighbors ...
  special bond factors lj:    0        0        0       
  special bond factors coul:  0        0        0       
     1 = max # of 1-2 neighbors
     0 = max # of 1-3 neighbors
     0 = max # of 1-4 neighbors
     1 = max # of special neighbors
  special bonds CPU = 0.000 seconds
group HXY delete

set atom 11 image 0 0 0
Setting atom values ...
  1 settings made for image
reset_atoms mol all single yes
Resetting molecule IDs ...
PPPM initialization ...
  using 12-bit tables for long-range coulomb (src/kspace.cpp:342)
  G vector (1/distance) = 0.34497565
  grid = 40 40 40
  stencil order = 5
  estimated absolute RMS force accuracy = 0.00013990509
  estimated relative force accuracy = 9.7158711e-06
  using double precision KISS FFT
  3d grid and FFT values/proc = 24389 8000
Generated 0 of 21 mixed pair_coeff terms from geometric mixing rule
  number of new molecule IDs = 1080
  reset_atoms mol CPU = 0.002 seconds

run 0 pre yes post no
PPPM initialization ...
  using 12-bit tables for long-range coulomb (src/kspace.cpp:342)
  G vector (1/distance) = 0.34497565
  grid = 40 40 40
  stencil order = 5
  estimated absolute RMS force accuracy = 0.00013990509
  estimated relative force accuracy = 9.7158711e-06
  using double precision KISS FFT
  3d grid and FFT values/proc = 24389 8000
Generated 0 of 21 mixed pair_coeff terms from geometric mixing rule
Per MPI rank memory allocation (min/avg/max) = 10.58 | 10.6 | 10.7 Mbytes
   Step          Temp          E_pair         E_mol          TotEng         Press     
        86   1093.3146     -31467.628      0.42613397    -31314.574     -19950.436    
Loop time of 4.52338e-06 on 8 procs for 0 steps with 1081 atoms

write_data /tmp/mustard.640189c1f8674eabab74225cc7efa77b nocoeff
System init for write_data ...
PPPM initialization ...
  using 12-bit tables for long-range coulomb (src/kspace.cpp:342)
  G vector (1/distance) = 0.34497565
  grid = 40 40 40
  stencil order = 5
  estimated absolute RMS force accuracy = 0.00013990509
  estimated relative force accuracy = 9.7158711e-06
  using double precision KISS FFT
  3d grid and FFT values/proc = 24389 8000
Generated 0 of 21 mixed pair_coeff terms from geometric mixing rule
run 0 pre yes post no
PPPM initialization ...
  using 12-bit tables for long-range coulomb (src/kspace.cpp:342)
  G vector (1/distance) = 0.34497565
  grid = 40 40 40
  stencil order = 5
  estimated absolute RMS force accuracy = 0.00013990509
  estimated relative force accuracy = 9.7158711e-06
  using double precision KISS FFT
  3d grid and FFT values/proc = 24389 8000
Generated 0 of 21 mixed pair_coeff terms from geometric mixing rule
Per MPI rank memory allocation (min/avg/max) = 10.58 | 10.6 | 10.7 Mbytes
   Step          Temp          E_pair         E_mol          TotEng         Press     
        86   1093.3146     -31467.628      0.42613397    -31314.574     -19950.436    
Loop time of 4.65737e-06 on 8 procs for 0 steps with 1081 atoms

run 1 pre yes post no
PPPM initialization ...
  using 12-bit tables for long-range coulomb (src/kspace.cpp:342)
  G vector (1/distance) = 0.34497565
  grid = 40 40 40
  stencil order = 5
  estimated absolute RMS force accuracy = 0.00013990509
  estimated relative force accuracy = 9.7158711e-06
  using double precision KISS FFT
  3d grid and FFT values/proc = 24389 8000
Generated 0 of 21 mixed pair_coeff terms from geometric mixing rule
Per MPI rank memory allocation (min/avg/max) = 10.58 | 10.6 | 10.7 Mbytes
   Step          Temp          E_pair         E_mol          TotEng         Press     
        86   1093.3146     -31467.628      0.42613397    -31314.574     -19950.436    
        87   1086.1431     -31465.003      0.67138298    -31312.705     -19579.592    
Loop time of 0.0391705 on 8 procs for 1 steps with 1081 atoms

run 0 pre yes post no
PPPM initialization ...
  using 12-bit tables for long-range coulomb (src/kspace.cpp:342)
  G vector (1/distance) = 0.34497565
  grid = 40 40 40
  stencil order = 5
  estimated absolute RMS force accuracy = 0.00013990509
  estimated relative force accuracy = 9.7158711e-06
  using double precision KISS FFT
  3d grid and FFT values/proc = 24389 8000
Generated 0 of 21 mixed pair_coeff terms from geometric mixing rule
Per MPI rank memory allocation (min/avg/max) = 10.58 | 10.6 | 10.7 Mbytes
   Step          Temp          E_pair         E_mol          TotEng         Press     
        87   1086.1431     -31465.003      0.67138298    -31312.705     -19579.592    
Loop time of 4.6285e-06 on 8 procs for 0 steps with 1081 atoms

group HXY id 1 11 13 
3 atoms in group HXY
delete_bonds HXY multi remove
System init for delete_bonds ...
PPPM initialization ...
  using 12-bit tables for long-range coulomb (src/kspace.cpp:342)
  G vector (1/distance) = 0.34497565
  grid = 40 40 40
  stencil order = 5
  estimated absolute RMS force accuracy = 0.00013990509
  estimated relative force accuracy = 9.7158711e-06
  using double precision KISS FFT
  3d grid and FFT values/proc = 24389 8000
Generated 0 of 21 mixed pair_coeff terms from geometric mixing rule
Deleting bonds ...
  0 total bonds, 0 turned on, 0 turned off
  0 total angles, 0 turned on, 0 turned off
  0 total dihedrals, 0 turned on, 0 turned off
  0 total impropers, 0 turned on, 0 turned off

set atom 1 type 7
Setting atom values ...
  1 settings made for type
set atom 1 charge 0.308698
Setting atom values ...
  1 settings made for charge
set atom 13 type 4
Setting atom values ...
  1 settings made for type
set atom 13 charge -1.308698
Setting atom values ...
  1 settings made for charge
set atom 11 type 5
Setting atom values ...
  1 settings made for type
set atom 11 charge -2.0
Setting atom values ...
  1 settings made for charge
set atom 13 image 0 0 0
Setting atom values ...
  1 settings made for image
create_bonds single/bond 1 13 1 special yes
Finding 1-2 1-3 1-4 neighbors ...
  special bond factors lj:    0        0        0       
  special bond factors coul:  0        0        0       
     1 = max # of 1-2 neighbors
     0 = max # of 1-3 neighbors
     0 = max # of 1-4 neighbors
     1 = max # of special neighbors
  special bonds CPU = 0.000 seconds
group HXY delete

set atom 13 image 0 0 0
Setting atom values ...
  1 settings made for image
reset_atoms mol all single yes
Resetting molecule IDs ...
PPPM initialization ...
  using 12-bit tables for long-range coulomb (src/kspace.cpp:342)
  G vector (1/distance) = 0.34497565
  grid = 40 40 40
  stencil order = 5
  estimated absolute RMS force accuracy = 0.00013990509
  estimated relative force accuracy = 9.7158711e-06
  using double precision KISS FFT
  3d grid and FFT values/proc = 24389 8000
Generated 0 of 21 mixed pair_coeff terms from geometric mixing rule
  number of new molecule IDs = 1080
  reset_atoms mol CPU = 0.002 seconds

run 0 pre yes post no
PPPM initialization ...
  using 12-bit tables for long-range coulomb (src/kspace.cpp:342)
  G vector (1/distance) = 0.34497565
  grid = 40 40 40
  stencil order = 5
  estimated absolute RMS force accuracy = 0.00013990509
  estimated relative force accuracy = 9.7158711e-06
  using double precision KISS FFT
  3d grid and FFT values/proc = 24389 8000
Generated 0 of 21 mixed pair_coeff terms from geometric mixing rule
Per MPI rank memory allocation (min/avg/max) = 10.58 | 10.6 | 10.7 Mbytes
   Step          Temp          E_pair         E_mol          TotEng         Press     
        87   1086.1431     -31467.029      4.8266925     -31310.576     -19874.963    
Loop time of 4.8605e-06 on 8 procs for 0 steps with 1081 atoms

write_data /tmp/mustard.640189c1f8674eabab74225cc7efa77b nocoeff
System init for write_data ...
PPPM initialization ...
  using 12-bit tables for long-range coulomb (src/kspace.cpp:342)
  G vector (1/distance) = 0.34497565
  grid = 40 40 40
  stencil order = 5
  estimated absolute RMS force accuracy = 0.00013990509
  estimated relative force accuracy = 9.7158711e-06
  using double precision KISS FFT
  3d grid and FFT values/proc = 24389 8000
Generated 0 of 21 mixed pair_coeff terms from geometric mixing rule
run 0 pre yes post no
PPPM initialization ...
  using 12-bit tables for long-range coulomb (src/kspace.cpp:342)
  G vector (1/distance) = 0.34497565
  grid = 40 40 40
  stencil order = 5
  estimated absolute RMS force accuracy = 0.00013990509
  estimated relative force accuracy = 9.7158711e-06
  using double precision KISS FFT
  3d grid and FFT values/proc = 24389 8000
Generated 0 of 21 mixed pair_coeff terms from geometric mixing rule
Per MPI rank memory allocation (min/avg/max) = 10.58 | 10.6 | 10.7 Mbytes
   Step          Temp          E_pair         E_mol          TotEng         Press     
        87   1086.1431     -31467.029      4.8266925     -31310.576     -19874.963    
Loop time of 5.022e-06 on 8 procs for 0 steps with 1081 atoms

run 1 pre yes post no
PPPM initialization ...
  using 12-bit tables for long-range coulomb (src/kspace.cpp:342)
  G vector (1/distance) = 0.34497565
  grid = 40 40 40
  stencil order = 5
  estimated absolute RMS force accuracy = 0.00013990509
  estimated relative force accuracy = 9.7158711e-06
  using double precision KISS FFT
  3d grid and FFT values/proc = 24389 8000
Generated 0 of 21 mixed pair_coeff terms from geometric mixing rule
Per MPI rank memory allocation (min/avg/max) = 10.58 | 10.6 | 10.7 Mbytes
   Step          Temp          E_pair         E_mol          TotEng         Press     
        87   1086.1431     -31467.029      4.8266925     -31310.576     -19874.963    
        88   1077.5109     -31464.677      2.9858901     -31311.27      -19353.691    
Loop time of 0.0396038 on 8 procs for 1 steps with 1081 atoms

run 0 pre yes post no
PPPM initialization ...
  using 12-bit tables for long-range coulomb (src/kspace.cpp:342)
  G vector (1/distance) = 0.34497565
  grid = 40 40 40
  stencil order = 5
  estimated absolute RMS force accuracy = 0.00013990509
  estimated relative force accuracy = 9.7158711e-06
  using double precision KISS FFT
  3d grid and FFT values/proc = 24389 8000
Generated 0 of 21 mixed pair_coeff terms from geometric mixing rule
Per MPI rank memory allocation (min/avg/max) = 10.58 | 10.6 | 10.7 Mbytes
   Step          Temp          E_pair         E_mol          TotEng         Press     
        88   1077.5109     -31464.677      2.9858901     -31311.27      -19353.691    
Loop time of 4.62112e-06 on 8 procs for 0 steps with 1081 atoms

group HXY id 1 13 11 
3 atoms in group HXY
delete_bonds HXY multi remove
System init for delete_bonds ...
PPPM initialization ...
  using 12-bit tables for long-range coulomb (src/kspace.cpp:342)
  G vector (1/distance) = 0.34497565
  grid = 40 40 40
  stencil order = 5
  estimated absolute RMS force accuracy = 0.00013990509
  estimated relative force accuracy = 9.7158711e-06
  using double precision KISS FFT
  3d grid and FFT values/proc = 24389 8000
Generated 0 of 21 mixed pair_coeff terms from geometric mixing rule
Deleting bonds ...
  0 total bonds, 0 turned on, 0 turned off
  0 total angles, 0 turned on, 0 turned off
  0 total dihedrals, 0 turned on, 0 turned off
  0 total impropers, 0 turned on, 0 turned off

set atom 1 type 7
Setting atom values ...
  1 settings made for type
set atom 1 charge 0.308698
Setting atom values ...
  1 settings made for charge
set atom 11 type 4
Setting atom values ...
  1 settings made for type
set atom 11 charge -1.308698
Setting atom values ...
  1 settings made for charge
set atom 13 type 5
Setting atom values ...
  1 settings made for type
set atom 13 charge -2.0
Setting atom values ...
  1 settings made for charge
set atom 11 image 0 0 0
Setting atom values ...
  1 settings made for image
create_bonds single/bond 1 11 1 special yes
Finding 1-2 1-3 1-4 neighbors ...
  special bond factors lj:    0        0        0       
  special bond factors coul:  0        0        0       
     1 = max # of 1-2 neighbors
     0 = max # of 1-3 neighbors
     0 = max # of 1-4 neighbors
     1 = max # of special neighbors
  special bonds CPU = 0.000 seconds
group HXY delete

set atom 11 image 0 0 0
Setting atom values ...
  1 settings made for image
reset_atoms mol all single yes
Resetting molecule IDs ...
PPPM initialization ...
  using 12-bit tables for long-range coulomb (src/kspace.cpp:342)
  G vector (1/distance) = 0.34497565
  grid = 40 40 40
  stencil order = 5
  estimated absolute RMS force accuracy = 0.00013990509
  estimated relative force accuracy = 9.7158711e-06
  using double precision KISS FFT
  3d grid and FFT values/proc = 24389 8000
Generated 0 of 21 mixed pair_coeff terms from geometric mixing rule
  number of new molecule IDs = 1080
  reset_atoms mol CPU = 0.002 seconds

run 0 pre yes post no
PPPM initialization ...
  using 12-bit tables for long-range coulomb (src/kspace.cpp:342)
  G vector (1/distance) = 0.34497565
  grid = 40 40 40
  stencil order = 5
  estimated absolute RMS force accuracy = 0.00013990509
  estimated relative force accuracy = 9.7158711e-06
  using double precision KISS FFT
  3d grid and FFT values/proc = 24389 8000
Generated 0 of 21 mixed pair_coeff terms from geometric mixing rule
Per MPI rank memory allocation (min/avg/max) = 10.58 | 10.6 | 10.7 Mbytes
   Step          Temp          E_pair         E_mol          TotEng         Press     
        88   1077.5109     -31463.29       3.205383      -31309.663     -19427.721    
Loop time of 5.19087e-06 on 8 procs for 0 steps with 1081 atoms

write_data /tmp/mustard.640189c1f8674eabab74225cc7efa77b nocoeff
System init for write_data ...
PPPM initialization ...
  using 12-bit tables for long-range coulomb (src/kspace.cpp:342)
  G vector (1/distance) = 0.34497565
  grid = 40 40 40
  stencil order = 5
  estimated absolute RMS force accuracy = 0.00013990509
  estimated relative force accuracy = 9.7158711e-06
  using double precision KISS FFT
  3d grid and FFT values/proc = 24389 8000
Generated 0 of 21 mixed pair_coeff terms from geometric mixing rule
run 0 pre yes post no
PPPM initialization ...
  using 12-bit tables for long-range coulomb (src/kspace.cpp:342)
  G vector (1/distance) = 0.34497565
  grid = 40 40 40
  stencil order = 5
  estimated absolute RMS force accuracy = 0.00013990509
  estimated relative force accuracy = 9.7158711e-06
  using double precision KISS FFT
  3d grid and FFT values/proc = 24389 8000
Generated 0 of 21 mixed pair_coeff terms from geometric mixing rule
Per MPI rank memory allocation (min/avg/max) = 10.58 | 10.6 | 10.7 Mbytes
   Step          Temp          E_pair         E_mol          TotEng         Press     
        88   1077.5109     -31463.29       3.205383      -31309.663     -19427.721    
Loop time of 4.66875e-06 on 8 procs for 0 steps with 1081 atoms

run 1 pre yes post no
PPPM initialization ...
  using 12-bit tables for long-range coulomb (src/kspace.cpp:342)
  G vector (1/distance) = 0.34497565
  grid = 40 40 40
  stencil order = 5
  estimated absolute RMS force accuracy = 0.00013990509
  estimated relative force accuracy = 9.7158711e-06
  using double precision KISS FFT
  3d grid and FFT values/proc = 24389 8000
Generated 0 of 21 mixed pair_coeff terms from geometric mixing rule
Per MPI rank memory allocation (min/avg/max) = 10.58 | 10.6 | 10.7 Mbytes
   Step          Temp          E_pair         E_mol          TotEng         Press     
        88   1077.5109     -31463.29       3.205383      -31309.663     -19427.721    
        89   1080.4782     -31461.782      6.7775774     -31304.169     -18952.882    
Loop time of 0.0396547 on 8 procs for 1 steps with 1081 atoms

run 0 pre yes post no
PPPM initialization ...
  using 12-bit tables for long-range coulomb (src/kspace.cpp:342)
  G vector (1/distance) = 0.34497565
  grid = 40 40 40
  stencil order = 5
  estimated absolute RMS force accuracy = 0.00013990509
  estimated relative force accuracy = 9.7158711e-06
  using double precision KISS FFT
  3d grid and FFT values/proc = 24389 8000
Generated 0 of 21 mixed pair_coeff terms from geometric mixing rule
Per MPI rank memory allocation (min/avg/max) = 10.58 | 10.6 | 10.7 Mbytes
   Step          Temp          E_pair         E_mol          TotEng         Press     
        89   1080.4782     -31461.782      6.7775774     -31304.169     -18952.882    
Loop time of 4.92912e-06 on 8 procs for 0 steps with 1081 atoms

group HXY id 1 11 13 
3 atoms in group HXY
delete_bonds HXY multi remove
System init for delete_bonds ...
PPPM initialization ...
  using 12-bit tables for long-range coulomb (src/kspace.cpp:342)
  G vector (1/distance) = 0.34497565
  grid = 40 40 40
  stencil order = 5
  estimated absolute RMS force accuracy = 0.00013990509
  estimated relative force accuracy = 9.7158711e-06
  using double precision KISS FFT
  3d grid and FFT values/proc = 24389 8000
Generated 0 of 21 mixed pair_coeff terms from geometric mixing rule
Deleting bonds ...
  0 total bonds, 0 turned on, 0 turned off
  0 total angles, 0 turned on, 0 turned off
  0 total dihedrals, 0 turned on, 0 turned off
  0 total impropers, 0 turned on, 0 turned off

set atom 1 type 7
Setting atom values ...
  1 settings made for type
set atom 1 charge 0.308698
Setting atom values ...
  1 settings made for charge
set atom 13 type 4
Setting atom values ...
  1 settings made for type
set atom 13 charge -1.308698
Setting atom values ...
  1 settings made for charge
set atom 11 type 5
Setting atom values ...
  1 settings made for type
set atom 11 charge -2.0
Setting atom values ...
  1 settings made for charge
set atom 13 image 0 0 0
Setting atom values ...
  1 settings made for image
create_bonds single/bond 1 13 1 special yes
Finding 1-2 1-3 1-4 neighbors ...
  special bond factors lj:    0        0        0       
  special bond factors coul:  0        0        0       
     1 = max # of 1-2 neighbors
     0 = max # of 1-3 neighbors
     0 = max # of 1-4 neighbors
     1 = max # of special neighbors
  special bonds CPU = 0.000 seconds
group HXY delete

set atom 13 image 0 0 0
Setting atom values ...
  1 settings made for image
reset_atoms mol all single yes
Resetting molecule IDs ...
PPPM initialization ...
  using 12-bit tables for long-range coulomb (src/kspace.cpp:342)
  G vector (1/distance) = 0.34497565
  grid = 40 40 40
  stencil order = 5
  estimated absolute RMS force accuracy = 0.00013990509
  estimated relative force accuracy = 9.7158711e-06
  using double precision KISS FFT
  3d grid and FFT values/proc = 24389 8000
Generated 0 of 21 mixed pair_coeff terms from geometric mixing rule
  number of new molecule IDs = 1080
  reset_atoms mol CPU = 0.002 seconds

run 0 pre yes post no
PPPM initialization ...
  using 12-bit tables for long-range coulomb (src/kspace.cpp:342)
  G vector (1/distance) = 0.34497565
  grid = 40 40 40
  stencil order = 5
  estimated absolute RMS force accuracy = 0.00013990509
  estimated relative force accuracy = 9.7158711e-06
  using double precision KISS FFT
  3d grid and FFT values/proc = 24389 8000
Generated 0 of 21 mixed pair_coeff terms from geometric mixing rule
Per MPI rank memory allocation (min/avg/max) = 10.58 | 10.6 | 10.7 Mbytes
   Step          Temp          E_pair         E_mol          TotEng         Press     
        89   1080.4782     -31462.162      1.2398571     -31310.086     -18250.047    
Loop time of 4.97162e-06 on 8 procs for 0 steps with 1081 atoms

write_data /tmp/mustard.640189c1f8674eabab74225cc7efa77b nocoeff
System init for write_data ...
PPPM initialization ...
  using 12-bit tables for long-range coulomb (src/kspace.cpp:342)
  G vector (1/distance) = 0.34497565
  grid = 40 40 40
  stencil order = 5
  estimated absolute RMS force accuracy = 0.00013990509
  estimated relative force accuracy = 9.7158711e-06
  using double precision KISS FFT
  3d grid and FFT values/proc = 24389 8000
Generated 0 of 21 mixed pair_coeff terms from geometric mixing rule
run 0 pre yes post no
PPPM initialization ...
  using 12-bit tables for long-range coulomb (src/kspace.cpp:342)
  G vector (1/distance) = 0.34497565
  grid = 40 40 40
  stencil order = 5
  estimated absolute RMS force accuracy = 0.00013990509
  estimated relative force accuracy = 9.7158711e-06
  using double precision KISS FFT
  3d grid and FFT values/proc = 24389 8000
Generated 0 of 21 mixed pair_coeff terms from geometric mixing rule
Per MPI rank memory allocation (min/avg/max) = 10.58 | 10.6 | 10.7 Mbytes
   Step          Temp          E_pair         E_mol          TotEng         Press     
        89   1080.4782     -31462.162      1.2398571     -31310.086     -18250.047    
Loop time of 4.23562e-06 on 8 procs for 0 steps with 1081 atoms

run 1 pre yes post no
PPPM initialization ...
  using 12-bit tables for long-range coulomb (src/kspace.cpp:342)
  G vector (1/distance) = 0.34497565
  grid = 40 40 40
  stencil order = 5
  estimated absolute RMS force accuracy = 0.00013990509
  estimated relative force accuracy = 9.7158711e-06
  using double precision KISS FFT
  3d grid and FFT values/proc = 24389 8000
Generated 0 of 21 mixed pair_coeff terms from geometric mixing rule
Per MPI rank memory allocation (min/avg/max) = 10.58 | 10.6 | 10.7 Mbytes
   Step          Temp          E_pair         E_mol          TotEng         Press     
        89   1080.4782     -31462.162      1.2398571     -31310.086     -18250.047    
        90   1074.432      -31459.913      0.0041689912  -31309.918     -17014.77     
Loop time of 0.0386065 on 8 procs for 1 steps with 1081 atoms

run 1 pre yes post no
PPPM initialization ...
  using 12-bit tables for long-range coulomb (src/kspace.cpp:342)
  G vector (1/distance) = 0.34497565
  grid = 40 40 40
  stencil order = 5
  estimated absolute RMS force accuracy = 0.00013990509
  estimated relative force accuracy = 9.7158711e-06
  using double precision KISS FFT
  3d grid and FFT values/proc = 24389 8000
Generated 0 of 21 mixed pair_coeff terms from geometric mixing rule
Per MPI rank memory allocation (min/avg/max) = 10.58 | 10.6 | 10.7 Mbytes
   Step          Temp          E_pair         E_mol          TotEng         Press     
        90   1074.432      -31459.913      0.0041689912  -31309.918     -17014.77     
        91   1060.4297     -31458.196      0.63370938    -31309.525     -16009.154    
Loop time of 0.0395551 on 8 procs for 1 steps with 1081 atoms

run 1 pre no post no
   Step          Temp          E_pair         E_mol          TotEng         Press     
        91   1060.4297     -31458.196      0.63370938    -31309.525     -16009.154    
        92   1048.0122     -31457.251      0.93926225    -31310.009     -15223.419    
Loop time of 0.0377169 on 8 procs for 1 steps with 1081 atoms

run 1 pre yes post no
PPPM initialization ...
  using 12-bit tables for long-range coulomb (src/kspace.cpp:342)
  G vector (1/distance) = 0.34497565
  grid = 40 40 40
  stencil order = 5
  estimated absolute RMS force accuracy = 0.00013990509
  estimated relative force accuracy = 9.7158711e-06
  using double precision KISS FFT
  3d grid and FFT values/proc = 24389 8000
Generated 0 of 21 mixed pair_coeff terms from geometric mixing rule
Per MPI rank memory allocation (min/avg/max) = 10.58 | 10.6 | 10.7 Mbytes
   Step          Temp          E_pair         E_mol          TotEng         Press     
        92   1048.0122     -31457.251      0.93926225    -31310.009     -15223.419    
        93   1056.9641     -31457.22       0.13628546    -31309.53      -14507.59     
Loop time of 0.0380526 on 8 procs for 1 steps with 1081 atoms

run 1 pre no post no
   Step          Temp          E_pair         E_mol          TotEng         Press     
        93   1056.9641     -31457.22       0.13628546    -31309.53      -14507.59     
        94   1074.7401     -31458.143      0.37962932    -31307.728     -14035.418    
Loop time of 0.0374339 on 8 procs for 1 steps with 1081 atoms

run 1 pre no post no
   Step          Temp          E_pair         E_mol          TotEng         Press     
        94   1074.7401     -31458.143      0.37962932    -31307.728     -14035.418    
        95   1083.6804     -31459.953      2.0862648     -31306.584     -13847.426    
Loop time of 0.0374302 on 8 procs for 1 steps with 1081 atoms

run 1 pre no post no
   Step          Temp          E_pair         E_mol          TotEng         Press     
        95   1083.6804     -31459.953      2.0862648     -31306.584     -13847.426    
        96   1098.7094     -31462.416      2.8772231     -31306.158     -13523.69     
Loop time of 0.0371821 on 8 procs for 1 steps with 1081 atoms

run 1 pre yes post no
PPPM initialization ...
  using 12-bit tables for long-range coulomb (src/kspace.cpp:342)
  G vector (1/distance) = 0.34497565
  grid = 40 40 40
  stencil order = 5
  estimated absolute RMS force accuracy = 0.00013990509
  estimated relative force accuracy = 9.7158711e-06
  using double precision KISS FFT
  3d grid and FFT values/proc = 24389 8000
Generated 0 of 21 mixed pair_coeff terms from geometric mixing rule
Per MPI rank memory allocation (min/avg/max) = 10.58 | 10.6 | 10.7 Mbytes
   Step          Temp          E_pair         E_mol          TotEng         Press     
        96   1098.7094     -31462.416      2.8772231     -31306.158     -13523.69     
        97   1142.0727     -31465.225      1.5701223     -31304.221     -12734.415    
Loop time of 0.0386197 on 8 procs for 1 steps with 1081 atoms

run 1 pre no post no
   Step          Temp          E_pair         E_mol          TotEng         Press     
        97   1142.0727     -31465.225      1.5701223     -31304.221     -12734.415    
        98   1169.4722     -31468.113      0.11240053    -31304.741     -12060.43     
Loop time of 0.0373251 on 8 procs for 1 steps with 1081 atoms

run 1 pre no post no
   Step          Temp          E_pair         E_mol          TotEng         Press     
        98   1169.4722     -31468.113      0.11240053    -31304.741     -12060.43     
        99   1183.852      -31470.85       0.34535563    -31305.237     -11715.128    
Loop time of 0.0376538 on 8 procs for 1 steps with 1081 atoms

run 1 pre no post no
   Step          Temp          E_pair         E_mol          TotEng         Press     
        99   1183.852      -31470.85       0.34535563    -31305.237     -11715.128    
       100   1194.9971     -31473.284      1.0956471     -31305.366     -11649.053    
Loop time of 0.0378865 on 8 procs for 1 steps with 1081 atoms

run 1 pre yes post no
PPPM initialization ...
  using 12-bit tables for long-range coulomb (src/kspace.cpp:342)
  G vector (1/distance) = 0.34497565
  grid = 40 40 40
  stencil order = 5
  estimated absolute RMS force accuracy = 0.00013990509
  estimated relative force accuracy = 9.7158711e-06
  using double precision KISS FFT
  3d grid and FFT values/proc = 24389 8000
Generated 0 of 21 mixed pair_coeff terms from geometric mixing rule
Per MPI rank memory allocation (min/avg/max) = 10.58 | 10.6 | 10.7 Mbytes
   Step          Temp          E_pair         E_mol          TotEng         Press     
       100   1194.9971     -31473.284      1.0956471     -31305.366     -11649.053    
       101   1215.0154     -31475.228      0.70655727    -31304.904     -11673.03     
Loop time of 0.03928 on 8 procs for 1 steps with 1081 atoms

run 1 pre no post no
   Step          Temp          E_pair         E_mol          TotEng         Press     
       101   1215.0154     -31475.228      0.70655727    -31304.904     -11673.03     
       102   1227.228      -31476.533      0.022254331   -31305.189     -11907.685    
Loop time of 0.0378529 on 8 procs for 1 steps with 1081 atoms

run 1 pre no post no
   Step          Temp          E_pair         E_mol          TotEng         Press     
       102   1227.228      -31476.533      0.022254331   -31305.189     -11907.685    
       103   1232.1699     -31477.276      0.39040558    -31304.874     -12286.62     
Loop time of 0.0353077 on 8 procs for 1 steps with 1081 atoms

run 1 pre no post no
   Step          Temp          E_pair         E_mol          TotEng         Press     
       103   1232.1699     -31477.276      0.39040558    -31304.874     -12286.62     
       104   1233.9873     -31477.681      1.2183584     -31304.197     -12599.15     
Loop time of 0.0470315 on 8 procs for 1 steps with 1081 atoms

run 1 pre yes post no
PPPM initialization ...
  using 12-bit tables for long-range coulomb (src/kspace.cpp:342)
  G vector (1/distance) = 0.34497565
  grid = 40 40 40
  stencil order = 5
  estimated absolute RMS force accuracy = 0.00013990509
  estimated relative force accuracy = 9.7158711e-06
  using double precision KISS FFT
  3d grid and FFT values/proc = 24389 8000
Generated 0 of 21 mixed pair_coeff terms from geometric mixing rule
Per MPI rank memory allocation (min/avg/max) = 10.58 | 10.6 | 10.7 Mbytes
   Step          Temp          E_pair         E_mol          TotEng         Press     
       104   1233.9873     -31477.681      1.2183584     -31304.197     -12599.15     
       105   1244.7755     -31477.744      1.226213      -31302.746     -12577.635    
Loop time of 0.038985 on 8 procs for 1 steps with 1081 atoms

run 1 pre no post no
   Step          Temp          E_pair         E_mol          TotEng         Press     
       105   1244.7755     -31477.744      1.226213      -31302.746     -12577.635    
       106   1249.2884     -31477.241      0.51214975    -31302.327     -12375.499    
Loop time of 0.0386083 on 8 procs for 1 steps with 1081 atoms

run 1 pre no post no
   Step          Temp          E_pair         E_mol          TotEng         Press     
       106   1249.2884     -31477.241      0.51214975    -31302.327     -12375.499    
       107   1256.8932     -31476.069      0.037974691   -31300.568     -12039.854    
Loop time of 0.0388823 on 8 procs for 1 steps with 1081 atoms

run 1 pre no post no
   Step          Temp          E_pair         E_mol          TotEng         Press     
       107   1256.8932     -31476.069      0.037974691   -31300.568     -12039.854    
       108   1251.6919     -31474.348      0.011574005   -31299.599     -11837.726    
Loop time of 0.0394203 on 8 procs for 1 steps with 1081 atoms

run 1 pre yes post no
PPPM initialization ...
  using 12-bit tables for long-range coulomb (src/kspace.cpp:342)
  G vector (1/distance) = 0.34497565
  grid = 40 40 40
  stencil order = 5
  estimated absolute RMS force accuracy = 0.00013990509
  estimated relative force accuracy = 9.7158711e-06
  using double precision KISS FFT
  3d grid and FFT values/proc = 24389 8000
Generated 0 of 21 mixed pair_coeff terms from geometric mixing rule
Per MPI rank memory allocation (min/avg/max) = 10.58 | 10.6 | 10.7 Mbytes
   Step          Temp          E_pair         E_mol          TotEng         Press     
       108   1251.6919     -31474.348      0.011574005   -31299.599     -11837.726    
       109   1244.6564     -31472.28       0.00071351279 -31298.524     -11716.163    
Loop time of 0.0370927 on 8 procs for 1 steps with 1081 atoms

run 1 pre no post no
   Step          Temp          E_pair         E_mol          TotEng         Press     
       109   1244.6564     -31472.28       0.00071351279 -31298.524     -11716.163    
       110   1230.9739     -31470.038      0.26913253    -31297.923     -11723.716    
Loop time of 0.0363382 on 8 procs for 1 steps with 1081 atoms

run 1 pre no post no
   Step          Temp          E_pair         E_mol          TotEng         Press     
       110   1230.9739     -31470.038      0.26913253    -31297.923     -11723.716    
       111   1214.531      -31467.762      1.124347      -31297.088     -11763.319    
Loop time of 0.0370986 on 8 procs for 1 steps with 1081 atoms

run 1 pre no post no
   Step          Temp          E_pair         E_mol          TotEng         Press     
       111   1214.531      -31467.762      1.124347      -31297.088     -11763.319    
       112   1197.4299     -31465.548      1.7834584     -31296.603     -11681.329    
Loop time of 0.0371026 on 8 procs for 1 steps with 1081 atoms

run 1 pre yes post no
PPPM initialization ...
  using 12-bit tables for long-range coulomb (src/kspace.cpp:342)
  G vector (1/distance) = 0.34497565
  grid = 40 40 40
  stencil order = 5
  estimated absolute RMS force accuracy = 0.00013990509
  estimated relative force accuracy = 9.7158711e-06
  using double precision KISS FFT
  3d grid and FFT values/proc = 24389 8000
Generated 0 of 21 mixed pair_coeff terms from geometric mixing rule
Per MPI rank memory allocation (min/avg/max) = 10.58 | 10.6 | 10.7 Mbytes
   Step          Temp          E_pair         E_mol          TotEng         Press     
       112   1197.4299     -31465.548      1.7834584     -31296.603     -11681.329    
       113   1185.9319     -31463.437      1.4166339     -31296.463     -11332.025    
Loop time of 0.0370077 on 8 procs for 1 steps with 1081 atoms

run 1 pre no post no
   Step          Temp          E_pair         E_mol          TotEng         Press     
       113   1185.9319     -31463.437      1.4166339     -31296.463     -11332.025    
       114   1177.8727     -31461.448      0.4870729     -31296.529     -10800.829    
Loop time of 0.0363448 on 8 procs for 1 steps with 1081 atoms

run 1 pre no post no
   Step          Temp          E_pair         E_mol          TotEng         Press     
       114   1177.8727     -31461.448      0.4870729     -31296.529     -10800.829    
       115   1170.0076     -31459.628      0.012079076   -31296.281     -10271.788    
Loop time of 0.0371503 on 8 procs for 1 steps with 1081 atoms

run 1 pre no post no
   Step          Temp          E_pair         E_mol          TotEng         Press     
       115   1170.0076     -31459.628      0.012079076   -31296.281     -10271.788    
       116   1165.5601     -31458.016      0.082153987   -31295.221     -9813.3775    
Loop time of 0.0373679 on 8 procs for 1 steps with 1081 atoms

run 1 pre yes post no
PPPM initialization ...
  using 12-bit tables for long-range coulomb (src/kspace.cpp:342)
  G vector (1/distance) = 0.34497565
  grid = 40 40 40
  stencil order = 5
  estimated absolute RMS force accuracy = 0.00013990509
  estimated relative force accuracy = 9.7158711e-06
  using double precision KISS FFT
  3d grid and FFT values/proc = 24389 8000
Generated 0 of 21 mixed pair_coeff terms from geometric mixing rule
Per MPI rank memory allocation (min/avg/max) = 10.58 | 10.6 | 10.7 Mbytes
   Step          Temp          E_pair         E_mol          TotEng         Press     
       116   1165.5601     -31458.016      0.082153987   -31295.221     -9813.3775    
       117   1166.0574     -31456.542      0.11148014    -31293.648     -9418.2289    
Loop time of 0.0385865 on 8 procs for 1 steps with 1081 atoms

run 1 pre no post no
   Step          Temp          E_pair         E_mol          TotEng         Press     
       117   1166.0574     -31456.542      0.11148014    -31293.648     -9418.2289    
       118   1153.362      -31455.031      0.0083322881  -31294.012     -9219.6052    
Loop time of 0.036161 on 8 procs for 1 steps with 1081 atoms

run 1 pre no post no
   Step          Temp          E_pair         E_mol          TotEng         Press     
       118   1153.362      -31455.031      0.0083322881  -31294.012     -9219.6052    
       119   1145.7764     -31453.389      0.046899581   -31293.39      -8996.1744    
Loop time of 0.0358989 on 8 procs for 1 steps with 1081 atoms

run 1 pre no post no
   Step          Temp          E_pair         E_mol          TotEng         Press     
       119   1145.7764     -31453.389      0.046899581   -31293.39      -8996.1744    
       120   1136.6974     -31451.647      0.12390429    -31292.839     -8729.0668    
Loop time of 0.0357518 on 8 procs for 1 steps with 1081 atoms

run 1 pre yes post no
PPPM initialization ...
  using 12-bit tables for long-range coulomb (src/kspace.cpp:342)
  G vector (1/distance) = 0.34497565
  grid = 40 40 40
  stencil order = 5
  estimated absolute RMS force accuracy = 0.00013990509
  estimated relative force accuracy = 9.7158711e-06
  using double precision KISS FFT
  3d grid and FFT values/proc = 24389 8000
Generated 0 of 21 mixed pair_coeff terms from geometric mixing rule
Per MPI rank memory allocation (min/avg/max) = 10.58 | 10.6 | 10.7 Mbytes
   Step          Temp          E_pair         E_mol          TotEng         Press     
       120   1136.6974     -31451.647      0.12390429    -31292.839     -8729.0668    
       121   1129.2071     -31449.829      0.040078374   -31292.151     -8342.1332    
Loop time of 0.0393185 on 8 procs for 1 steps with 1081 atoms

run 1 pre no post no
   Step          Temp          E_pair         E_mol          TotEng         Press     
       121   1129.2071     -31449.829      0.040078374   -31292.151     -8342.1332    
       122   1121.4562     -31447.777      0.027615394   -31291.193     -7885.8972    
Loop time of 0.0344401 on 8 procs for 1 steps with 1081 atoms

run 1 pre no post no
   Step          Temp          E_pair         E_mol          TotEng         Press     
       122   1121.4562     -31447.777      0.027615394   -31291.193     -7885.8972    
       123   1103.5384     -31445.272      0.2829188     -31290.934     -7526.55      
Loop time of 0.0353677 on 8 procs for 1 steps with 1081 atoms

run 1 pre no post no
   Step          Temp          E_pair         E_mol          TotEng         Press     
       123   1103.5384     -31445.272      0.2829188     -31290.934     -7526.55      
       124   1086.3494     -31442.27       0.43478339    -31290.179     -7219.5248    
Loop time of 0.0361423 on 8 procs for 1 steps with 1081 atoms

run 1 pre yes post no
PPPM initialization ...
  using 12-bit tables for long-range coulomb (src/kspace.cpp:342)
  G vector (1/distance) = 0.34497565
  grid = 40 40 40
  stencil order = 5
  estimated absolute RMS force accuracy = 0.00013990509
  estimated relative force accuracy = 9.7158711e-06
  using double precision KISS FFT
  3d grid and FFT values/proc = 24389 8000
Generated 0 of 21 mixed pair_coeff terms from geometric mixing rule
Per MPI rank memory allocation (min/avg/max) = 10.58 | 10.6 | 10.7 Mbytes
   Step          Temp          E_pair         E_mol          TotEng         Press     
       124   1086.3494     -31442.27       0.43478339    -31290.179     -7219.5248    
       125   1068.0086     -31438.896      0.17855868    -31289.623     -7015.9469    
Loop time of 0.0375963 on 8 procs for 1 steps with 1081 atoms

run 1 pre no post no
   Step          Temp          E_pair         E_mol          TotEng         Press     
       125   1068.0086     -31438.896      0.17855868    -31289.623     -7015.9469    
       126   1045.8896     -31435.364      0.014046909   -31289.343     -6974.4014    
Loop time of 0.0365917 on 8 procs for 1 steps with 1081 atoms

run 1 pre no post no
   Step          Temp          E_pair         E_mol          TotEng         Press     
       126   1045.8896     -31435.364      0.014046909   -31289.343     -6974.4014    
       127   1029.9746     -31431.829      0.55323792    -31287.491     -6994.385     
Loop time of 0.0361086 on 8 procs for 1 steps with 1081 atoms

run 1 pre no post no
   Step          Temp          E_pair         E_mol          TotEng         Press     
       127   1029.9746     -31431.829      0.55323792    -31287.491     -6994.385     
       128   998.21322     -31428.291      1.4005893     -31287.539     -7179.5805    
Loop time of 0.0472927 on 8 procs for 1 steps with 1081 atoms

run 1 pre yes post no
PPPM initialization ...
  using 12-bit tables for long-range coulomb (src/kspace.cpp:342)
  G vector (1/distance) = 0.34497565
  grid = 40 40 40
  stencil order = 5
  estimated absolute RMS force accuracy = 0.00013990509
  estimated relative force accuracy = 9.7158711e-06
  using double precision KISS FFT
  3d grid and FFT values/proc = 24389 8000
Generated 0 of 21 mixed pair_coeff terms from geometric mixing rule
Per MPI rank memory allocation (min/avg/max) = 10.58 | 10.6 | 10.7 Mbytes
   Step          Temp          E_pair         E_mol          TotEng         Press     
       128   998.21322     -31428.291      1.4005893     -31287.539     -7179.5805    
       129   973.55902     -31424.826      1.520671      -31287.395     -7201.4734    
Loop time of 0.039421 on 8 procs for 1 steps with 1081 atoms

run 1 pre no post no
   Step          Temp          E_pair         E_mol          TotEng         Press     
       129   973.55902     -31424.826      1.520671      -31287.395     -7201.4734    
       130   959.85191     -31421.633      0.74740777    -31286.89      -7017.1635    
Loop time of 0.0394829 on 8 procs for 1 steps with 1081 atoms

run 1 pre no post no
   Step          Temp          E_pair         E_mol          TotEng         Press     
       130   959.85191     -31421.633      0.74740777    -31286.89      -7017.1635    
       131   955.54738     -31418.963      0.062779395   -31285.505     -6768.397     
Loop time of 0.0383753 on 8 procs for 1 steps with 1081 atoms

run 1 pre no post no
   Step          Temp          E_pair         E_mol          TotEng         Press     
       131   955.54738     -31418.963      0.062779395   -31285.505     -6768.397     
       132   955.69666     -31417.006      0.093205477   -31283.497     -6639.8446    
Loop time of 0.0388974 on 8 procs for 1 steps with 1081 atoms

run 1 pre yes post no
PPPM initialization ...
  using 12-bit tables for long-range coulomb (src/kspace.cpp:342)
  G vector (1/distance) = 0.34497565
  grid = 40 40 40
  stencil order = 5
  estimated absolute RMS force accuracy = 0.00013990509
  estimated relative force accuracy = 9.7158711e-06
  using double precision KISS FFT
  3d grid and FFT values/proc = 24389 8000
Generated 0 of 21 mixed pair_coeff terms from geometric mixing rule
Per MPI rank memory allocation (min/avg/max) = 10.58 | 10.6 | 10.7 Mbytes
   Step          Temp          E_pair         E_mol          TotEng         Press     
       132   955.69666     -31417.006      0.093205477   -31283.497     -6639.8446    
       133   953.15565     -31415.865      0.26626704    -31282.537     -6743.8274    
Loop time of 0.0367604 on 8 procs for 1 steps with 1081 atoms

run 1 pre no post no
   Step          Temp          E_pair         E_mol          TotEng         Press     
       133   953.15565     -31415.865      0.26626704    -31282.537     -6743.8274    
       134   953.99184     -31415.57       0.077406118   -31282.314     -7012.0275    
Loop time of 0.0362525 on 8 procs for 1 steps with 1081 atoms

run 1 pre no post no
   Step          Temp          E_pair         E_mol          TotEng         Press     
       134   953.99184     -31415.57       0.077406118   -31282.314     -7012.0275    
       135   965.30105     -31416.104      0.067495301   -31281.279     -7352.5479    
Loop time of 0.0365159 on 8 procs for 1 steps with 1081 atoms

run 1 pre no post no
   Step          Temp          E_pair         E_mol          TotEng         Press     
       135   965.30105     -31416.104      0.067495301   -31281.279     -7352.5479    
       136   976.89626     -31417.384      0.65232851    -31280.356     -7775.5237    
Loop time of 0.0364829 on 8 procs for 1 steps with 1081 atoms

run 1 pre yes post no
PPPM initialization ...
  using 12-bit tables for long-range coulomb (src/kspace.cpp:342)
  G vector (1/distance) = 0.34497565
  grid = 40 40 40
  stencil order = 5
  estimated absolute RMS force accuracy = 0.00013990509
  estimated relative force accuracy = 9.7158711e-06
  using double precision KISS FFT
  3d grid and FFT values/proc = 24389 8000
Generated 0 of 21 mixed pair_coeff terms from geometric mixing rule
Per MPI rank memory allocation (min/avg/max) = 10.58 | 10.6 | 10.7 Mbytes
   Step          Temp          E_pair         E_mol          TotEng         Press     
       136   976.89626     -31417.384      0.65232851    -31280.356     -7775.5237    
       137   989.48547     -31419.234      1.1892879     -31279.911     -8120.1796    
Loop time of 0.0393303 on 8 procs for 1 steps with 1081 atoms

run 1 pre no post no
   Step          Temp          E_pair         E_mol          TotEng         Press     
       137   989.48547     -31419.234      1.1892879     -31279.911     -8120.1796    
       138   1010.5678     -31421.411      0.95147912    -31279.383     -8201.4367    
Loop time of 0.0395888 on 8 procs for 1 steps with 1081 atoms

run 1 pre no post no
   Step          Temp          E_pair         E_mol          TotEng         Press     
       138   1010.5678     -31421.411      0.95147912    -31279.383     -8201.4367    
       139   1040.0199     -31423.721      0.26857616    -31278.264     -8035.06      
Loop time of 0.038937 on 8 procs for 1 steps with 1081 atoms

run 1 pre no post no
   Step          Temp          E_pair         E_mol          TotEng         Press     
       139   1040.0199     -31423.721      0.26857616    -31278.264     -8035.06      
       140   1061.8672     -31426.061      0.0057348561  -31277.817     -7865.7359    
Loop time of 0.0381433 on 8 procs for 1 steps with 1081 atoms

run 1 pre yes post no
PPPM initialization ...
  using 12-bit tables for long-range coulomb (src/kspace.cpp:342)
  G vector (1/distance) = 0.34497565
  grid = 40 40 40
  stencil order = 5
  estimated absolute RMS force accuracy = 0.00013990509
  estimated relative force accuracy = 9.7158711e-06
  using double precision KISS FFT
  3d grid and FFT values/proc = 24389 8000
Generated 0 of 21 mixed pair_coeff terms from geometric mixing rule
Per MPI rank memory allocation (min/avg/max) = 10.58 | 10.6 | 10.7 Mbytes
   Step          Temp          E_pair         E_mol          TotEng         Press     
       140   1061.8672     -31426.061      0.0057348561  -31277.817     -7865.7359    
       141   1076.5016     -31428.344      0.29721984    -31277.766     -7761.4606    
Loop time of 0.0389797 on 8 procs for 1 steps with 1081 atoms

run 1 pre no post no
   Step          Temp          E_pair         E_mol          TotEng         Press     
       141   1076.5016     -31428.344      0.29721984    -31277.766     -7761.4606    
       142   1091.6722     -31430.453      0.48380629    -31277.571     -7657.0407    
Loop time of 0.0351629 on 8 procs for 1 steps with 1081 atoms

run 1 pre no post no
   Step          Temp          E_pair         E_mol          TotEng         Press     
       142   1091.6722     -31430.453      0.48380629    -31277.571     -7657.0407    
       143   1109.8958     -31432.284      0.23336205    -31277.108     -7516.8191    
Loop time of 0.0253491 on 8 procs for 1 steps with 1081 atoms

run 1 pre no post no
   Step          Temp          E_pair         E_mol          TotEng         Press     
       143   1109.8958     -31432.284      0.23336205    -31277.108     -7516.8191    
       144   1126.8043     -31433.809      0.00050178055 -31276.505     -7379.2141    
Loop time of 0.048138 on 8 procs for 1 steps with 1081 atoms

run 1 pre yes post no
PPPM initialization ...
  using 12-bit tables for long-range coulomb (src/kspace.cpp:342)
  G vector (1/distance) = 0.34497565
  grid = 40 40 40
  stencil order = 5
  estimated absolute RMS force accuracy = 0.00013990509
  estimated relative force accuracy = 9.7158711e-06
  using double precision KISS FFT
  3d grid and FFT values/proc = 24389 8000
Generated 0 of 21 mixed pair_coeff terms from geometric mixing rule
Per MPI rank memory allocation (min/avg/max) = 10.58 | 10.6 | 10.7 Mbytes
   Step          Temp          E_pair         E_mol          TotEng         Press     
       144   1126.8043     -31433.809      0.00050178055 -31276.505     -7379.2141    
       145   1131.5967     -31435.052      0.22851272    -31276.852     -7317.6635    
Loop time of 0.0284493 on 8 procs for 1 steps with 1081 atoms

run 1 pre no post no
   Step          Temp          E_pair         E_mol          TotEng         Press     
       145   1131.5967     -31435.052      0.22851272    -31276.852     -7317.6635    
       146   1133.2638     -31435.998      0.66215372    -31277.131     -7186.5904    
Loop time of 0.0277294 on 8 procs for 1 steps with 1081 atoms

run 1 pre no post no
   Step          Temp          E_pair         E_mol          TotEng         Press     
       146   1133.2638     -31435.998      0.66215372    -31277.131     -7186.5904    
       147   1133.1946     -31436.574      0.84636296    -31277.532     -6949.5597    
Loop time of 0.0278895 on 8 procs for 1 steps with 1081 atoms

run 1 pre no post no
   Step          Temp          E_pair         E_mol          TotEng         Press     
       147   1133.1946     -31436.574      0.84636296    -31277.532     -6949.5597    
       148   1146.9096     -31436.756      0.81230222    -31275.834     -6522.7153    
Loop time of 0.0272117 on 8 procs for 1 steps with 1081 atoms

run 1 pre yes post no
PPPM initialization ...
  using 12-bit tables for long-range coulomb (src/kspace.cpp:342)
  G vector (1/distance) = 0.34497565
  grid = 40 40 40
  stencil order = 5
  estimated absolute RMS force accuracy = 0.00013990509
  estimated relative force accuracy = 9.7158711e-06
  using double precision KISS FFT
  3d grid and FFT values/proc = 24389 8000
Generated 0 of 21 mixed pair_coeff terms from geometric mixing rule
Per MPI rank memory allocation (min/avg/max) = 10.58 | 10.6 | 10.7 Mbytes
   Step          Temp          E_pair         E_mol          TotEng         Press     
       148   1146.9096     -31436.756      0.81230222    -31275.834     -6522.7153    
       149   1154.6544     -31436.533      0.63184606    -31274.711     -6117.6223    
Loop time of 0.0268619 on 8 procs for 1 steps with 1081 atoms

run 1 pre no post no
   Step          Temp          E_pair         E_mol          TotEng         Press     
       149   1154.6544     -31436.533      0.63184606    -31274.711     -6117.6223    
       150   1151.6036     -31435.914      0.30842404    -31274.841     -5775.186     
Loop time of 0.0264269 on 8 procs for 1 steps with 1081 atoms

run 1 pre no post no
   Step          Temp          E_pair         E_mol          TotEng         Press     
       150   1151.6036     -31435.914      0.30842404    -31274.841     -5775.186     
       151   1151.5153     -31435.025      0.058266719   -31274.214     -5415.3268    
Loop time of 0.022654 on 8 procs for 1 steps with 1081 atoms

run 1 pre no post no
   Step          Temp          E_pair         E_mol          TotEng         Press     
       151   1151.5153     -31435.025      0.058266719   -31274.214     -5415.3268    
       152   1151.9374     -31434.006      4.8098532e-05 -31273.195     -5127.2992    
Loop time of 0.0269671 on 8 procs for 1 steps with 1081 atoms

run 1 pre yes post no
PPPM initialization ...
  using 12-bit tables for long-range coulomb (src/kspace.cpp:342)
  G vector (1/distance) = 0.34497565
  grid = 40 40 40
  stencil order = 5
  estimated absolute RMS force accuracy = 0.00013990509
  estimated relative force accuracy = 9.7158711e-06
  using double precision KISS FFT
  3d grid and FFT values/proc = 24389 8000
Generated 0 of 21 mixed pair_coeff terms from geometric mixing rule
Per MPI rank memory allocation (min/avg/max) = 10.58 | 10.6 | 10.7 Mbytes
   Step          Temp          E_pair         E_mol          TotEng         Press     
       152   1151.9374     -31434.006      4.8098532e-05 -31273.195     -5127.2992    
       153   1141.9887     -31432.931      0.0060131925  -31273.502     -5048.3861    
Loop time of 0.0267187 on 8 procs for 1 steps with 1081 atoms

run 1 pre no post no
   Step          Temp          E_pair         E_mol          TotEng         Press     
       153   1141.9887     -31432.931      0.0060131925  -31273.502     -5048.3861    
       154   1145.0381     -31431.842      0.002985494   -31271.991     -4974.4693    
Loop time of 0.0245045 on 8 procs for 1 steps with 1081 atoms

run 1 pre no post no
   Step          Temp          E_pair         E_mol          TotEng         Press     
       154   1145.0381     -31431.842      0.002985494   -31271.991     -4974.4693    
       155   1143.6937     -31430.75       0.099831489   -31270.989     -5051.2071    
Loop time of 0.024473 on 8 procs for 1 steps with 1081 atoms

run 1 pre no post no
   Step          Temp          E_pair         E_mol          TotEng         Press     
       155   1143.6937     -31430.75       0.099831489   -31270.989     -5051.2071    
       156   1135.3575     -31429.636      0.33009685    -31270.809     -5259.7774    
Loop time of 0.024355 on 8 procs for 1 steps with 1081 atoms

run 1 pre yes post no
PPPM initialization ...
  using 12-bit tables for long-range coulomb (src/kspace.cpp:342)
  G vector (1/distance) = 0.34497565
  grid = 40 40 40
  stencil order = 5
  estimated absolute RMS force accuracy = 0.00013990509
  estimated relative force accuracy = 9.7158711e-06
  using double precision KISS FFT
  3d grid and FFT values/proc = 24389 8000
Generated 0 of 21 mixed pair_coeff terms from geometric mixing rule
Per MPI rank memory allocation (min/avg/max) = 10.58 | 10.6 | 10.7 Mbytes
   Step          Temp          E_pair         E_mol          TotEng         Press     
       156   1135.3575     -31429.636      0.33009685    -31270.809     -5259.7774    
       157   1131.9531     -31428.477      0.50228342    -31269.953     -5434.8567    
Loop time of 0.02594 on 8 procs for 1 steps with 1081 atoms

run 1 pre no post no
   Step          Temp          E_pair         E_mol          TotEng         Press     
       157   1131.9531     -31428.477      0.50228342    -31269.953     -5434.8567    
       158   1117.9637     -31427.229      0.44526154    -31270.715     -5683.2115    
Loop time of 0.0475417 on 8 procs for 1 steps with 1081 atoms

run 1 pre no post no
   Step          Temp          E_pair         E_mol          TotEng         Press     
       158   1117.9637     -31427.229      0.44526154    -31270.715     -5683.2115    
       159   1106.9105     -31425.872      0.24059574    -31271.106     -5888.9651    
Loop time of 0.0271925 on 8 procs for 1 steps with 1081 atoms

run 1 pre no post no
   Step          Temp          E_pair         E_mol          TotEng         Press     
       159   1106.9105     -31425.872      0.24059574    -31271.106     -5888.9651    
       160   1103.8746     -31424.413      0.080603237   -31270.23      -6043.0477    
Loop time of 0.0273933 on 8 procs for 1 steps with 1081 atoms

run 1 pre yes post no
PPPM initialization ...
  using 12-bit tables for long-range coulomb (src/kspace.cpp:342)
  G vector (1/distance) = 0.34497565
  grid = 40 40 40
  stencil order = 5
  estimated absolute RMS force accuracy = 0.00013990509
  estimated relative force accuracy = 9.7158711e-06
  using double precision KISS FFT
  3d grid and FFT values/proc = 24389 8000
Generated 0 of 21 mixed pair_coeff terms from geometric mixing rule
Per MPI rank memory allocation (min/avg/max) = 10.58 | 10.6 | 10.7 Mbytes
   Step          Temp          E_pair         E_mol          TotEng         Press     
       160   1103.8746     -31424.413      0.080603237   -31270.23      -6043.0477    
       161   1095.488      -31422.874      0.024255626   -31269.918     -6295.4861    
Loop time of 0.0282558 on 8 procs for 1 steps with 1081 atoms

run 1 pre no post no
   Step          Temp          E_pair         E_mol          TotEng         Press     
       161   1095.488      -31422.874      0.024255626   -31269.918     -6295.4861    
       162   1094.9786     -31421.29       0.023828932   -31268.406     -6523.6537    
Loop time of 0.0272044 on 8 procs for 1 steps with 1081 atoms

run 1 pre no post no
   Step          Temp          E_pair         E_mol          TotEng         Press     
       162   1094.9786     -31421.29       0.023828932   -31268.406     -6523.6537    
       163   1087.724      -31419.689      0.058836718   -31267.783     -6837.7248    
Loop time of 0.028695 on 8 procs for 1 steps with 1081 atoms

run 1 pre no post no
   Step          Temp          E_pair         E_mol          TotEng         Press     
       163   1087.724      -31419.689      0.058836718   -31267.783     -6837.7248    
       164   1083.1353     -31418.135      0.10735598    -31266.821     -7111.4461    
Loop time of 0.0290426 on 8 procs for 1 steps with 1081 atoms

run 1 pre yes post no
PPPM initialization ...
  using 12-bit tables for long-range coulomb (src/kspace.cpp:342)
  G vector (1/distance) = 0.34497565
  grid = 40 40 40
  stencil order = 5
  estimated absolute RMS force accuracy = 0.00013990509
  estimated relative force accuracy = 9.7158711e-06
  using double precision KISS FFT
  3d grid and FFT values/proc = 24389 8000
Generated 0 of 21 mixed pair_coeff terms from geometric mixing rule
Per MPI rank memory allocation (min/avg/max) = 10.58 | 10.6 | 10.7 Mbytes
   Step          Temp          E_pair         E_mol          TotEng         Press     
       164   1083.1353     -31418.135      0.10735598    -31266.821     -7111.4461    
       165   1083.6217     -31416.728      0.10368154    -31265.35      -7287.1017    
Loop time of 0.0292584 on 8 procs for 1 steps with 1081 atoms

run 1 pre no post no
   Step          Temp          E_pair         E_mol          TotEng         Press     
       165   1083.6217     -31416.728      0.10368154    -31265.35      -7287.1017    
       166   1081.3578     -31415.566      0.038484636   -31264.569     -7425.1695    
Loop time of 0.0273599 on 8 procs for 1 steps with 1081 atoms

run 1 pre no post no
   Step          Temp          E_pair         E_mol          TotEng         Press     
       166   1081.3578     -31415.566      0.038484636   -31264.569     -7425.1695    
       167   1081.4167     -31414.717      1.7482465e-07 -31263.751     -7500.5465    
Loop time of 0.0267532 on 8 procs for 1 steps with 1081 atoms

run 1 pre no post no
   Step          Temp          E_pair         E_mol          TotEng         Press     
       167   1081.4167     -31414.717      1.7482465e-07 -31263.751     -7500.5465    
       168   1082.3717     -31414.225      0.024752707   -31263.1       -7566.2901    
Loop time of 0.0268448 on 8 procs for 1 steps with 1081 atoms

run 1 pre yes post no
PPPM initialization ...
  using 12-bit tables for long-range coulomb (src/kspace.cpp:342)
  G vector (1/distance) = 0.34497565
  grid = 40 40 40
  stencil order = 5
  estimated absolute RMS force accuracy = 0.00013990509
  estimated relative force accuracy = 9.7158711e-06
  using double precision KISS FFT
  3d grid and FFT values/proc = 24389 8000
Generated 0 of 21 mixed pair_coeff terms from geometric mixing rule
Per MPI rank memory allocation (min/avg/max) = 10.58 | 10.6 | 10.7 Mbytes
   Step          Temp          E_pair         E_mol          TotEng         Press     
       168   1082.3717     -31414.225      0.024752707   -31263.1       -7566.2901    
       169   1090.3148     -31414.129      0.027745559   -31261.893     -7600.5038    
Loop time of 0.0276213 on 8 procs for 1 steps with 1081 atoms

run 1 pre no post no
   Step          Temp          E_pair         E_mol          TotEng         Press     
       169   1090.3148     -31414.129      0.027745559   -31261.893     -7600.5038    
       170   1094.0872     -31414.459      0.00040193989 -31261.723     -7725.0924    
Loop time of 0.0243288 on 8 procs for 1 steps with 1081 atoms

run 1 pre no post no
   Step          Temp          E_pair         E_mol          TotEng         Press     
       170   1094.0872     -31414.459      0.00040193989 -31261.723     -7725.0924    
       171   1107.4177     -31415.2        0.11920196    -31260.484     -7809.7968    
Loop time of 0.0239029 on 8 procs for 1 steps with 1081 atoms

run 1 pre no post no
   Step          Temp          E_pair         E_mol          TotEng         Press     
       171   1107.4177     -31415.2        0.11920196    -31260.484     -7809.7968    
       172   1115.6012     -31416.293      0.44562107    -31260.109     -7949.5576    
Loop time of 0.0238899 on 8 procs for 1 steps with 1081 atoms

run 1 pre yes post no
PPPM initialization ...
  using 12-bit tables for long-range coulomb (src/kspace.cpp:342)
  G vector (1/distance) = 0.34497565
  grid = 40 40 40
  stencil order = 5
  estimated absolute RMS force accuracy = 0.00013990509
  estimated relative force accuracy = 9.7158711e-06
  using double precision KISS FFT
  3d grid and FFT values/proc = 24389 8000
Generated 0 of 21 mixed pair_coeff terms from geometric mixing rule
Per MPI rank memory allocation (min/avg/max) = 10.58 | 10.6 | 10.7 Mbytes
   Step          Temp          E_pair         E_mol          TotEng         Press     
       172   1115.6012     -31416.293      0.44562107    -31260.109     -7949.5576    
       173   1121.2636     -31417.663      0.69066277    -31260.443     -8049.3614    
Loop time of 0.0250176 on 8 procs for 1 steps with 1081 atoms

run 1 pre no post no
   Step          Temp          E_pair         E_mol          TotEng         Press     
       173   1121.2636     -31417.663      0.69066277    -31260.443     -8049.3614    
       174   1139.5553     -31419.254      0.57084897    -31259.6       -7924.2584    
Loop time of 0.0228727 on 8 procs for 1 steps with 1081 atoms

run 1 pre no post no
   Step          Temp          E_pair         E_mol          TotEng         Press     
       174   1139.5553     -31419.254      0.57084897    -31259.6       -7924.2584    
       175   1157.3353     -31421.016      0.23488067    -31259.216     -7716.1435    
Loop time of 0.0235139 on 8 procs for 1 steps with 1081 atoms

run 1 pre no post no
   Step          Temp          E_pair         E_mol          TotEng         Press     
       175   1157.3353     -31421.016      0.23488067    -31259.216     -7716.1435    
       176   1178.4536     -31422.89       0.02844517    -31258.348     -7456.3445    
Loop time of 0.0247429 on 8 procs for 1 steps with 1081 atoms

run 1 pre yes post no
PPPM initialization ...
  using 12-bit tables for long-range coulomb (src/kspace.cpp:342)
  G vector (1/distance) = 0.34497565
  grid = 40 40 40
  stencil order = 5
  estimated absolute RMS force accuracy = 0.00013990509
  estimated relative force accuracy = 9.7158711e-06
  using double precision KISS FFT
  3d grid and FFT values/proc = 24389 8000
Generated 0 of 21 mixed pair_coeff terms from geometric mixing rule
Per MPI rank memory allocation (min/avg/max) = 10.58 | 10.6 | 10.7 Mbytes
   Step          Temp          E_pair         E_mol          TotEng         Press     
       176   1178.4536     -31422.89       0.02844517    -31258.348     -7456.3445    
       177   1195.2028     -31424.834      0.00019755078 -31257.982     -7273.3788    
Loop time of 0.0246498 on 8 procs for 1 steps with 1081 atoms

run 1 pre no post no
   Step          Temp          E_pair         E_mol          TotEng         Press     
       177   1195.2028     -31424.834      0.00019755078 -31257.982     -7273.3788    
       178   1207.3146     -31426.809      0.0019267803  -31258.265     -7194.9468    
Loop time of 0.024517 on 8 procs for 1 steps with 1081 atoms

run 1 pre no post no
   Step          Temp          E_pair         E_mol          TotEng         Press     
       178   1207.3146     -31426.809      0.0019267803  -31258.265     -7194.9468    
       179   1227.6589     -31428.775      0.09769083    -31257.295     -7102.5971    
Loop time of 0.0251587 on 8 procs for 1 steps with 1081 atoms

run 1 pre no post no
   Step          Temp          E_pair         E_mol          TotEng         Press     
       179   1227.6589     -31428.775      0.09769083    -31257.295     -7102.5971    
       180   1235.7501     -31430.673      0.41891847    -31257.742     -7153.0558    
Loop time of 0.0240329 on 8 procs for 1 steps with 1081 atoms

run 1 pre yes post no
PPPM initialization ...
  using 12-bit tables for long-range coulomb (src/kspace.cpp:342)
  G vector (1/distance) = 0.34497565
  grid = 40 40 40
  stencil order = 5
  estimated absolute RMS force accuracy = 0.00013990509
  estimated relative force accuracy = 9.7158711e-06
  using double precision KISS FFT
  3d grid and FFT values/proc = 24389 8000
Generated 0 of 21 mixed pair_coeff terms from geometric mixing rule
Per MPI rank memory allocation (min/avg/max) = 10.58 | 10.6 | 10.7 Mbytes
   Step          Temp          E_pair         E_mol          TotEng         Press     
       180   1235.7501     -31430.673      0.41891847    -31257.742     -7153.0558    
       181   1256.6078     -31432.417      0.75435241    -31256.239     -7052.8539    
Loop time of 0.0254018 on 8 procs for 1 steps with 1081 atoms

run 1 pre no post no
   Step          Temp          E_pair         E_mol          TotEng         Press     
       181   1256.6078     -31432.417      0.75435241    -31256.239     -7052.8539    
       182   1271.8        -31433.962      0.73340135    -31255.684     -6915.3555    
Loop time of 0.0523919 on 8 procs for 1 steps with 1081 atoms

run 1 pre no post no
   Step          Temp          E_pair         E_mol          TotEng         Press     
       182   1271.8        -31433.962      0.73340135    -31255.684     -6915.3555    
       183   1284.3039     -31435.321      0.35873593    -31255.673     -6714.5291    
Loop time of 0.0240098 on 8 procs for 1 steps with 1081 atoms

run 1 pre no post no
   Step          Temp          E_pair         E_mol          TotEng         Press     
       183   1284.3039     -31435.321      0.35873593    -31255.673     -6714.5291    
       184   1296.0416     -31436.606      0.038298419   -31255.639     -6496.949     
Loop time of 0.0233551 on 8 procs for 1 steps with 1081 atoms

