LAMMPS (3 Aug 2023 - Development - patch_2Aug2023-673-gf0801338f3-modified)
WARNING: Using I/O redirection is unreliable with parallel runs. Better to use the -in switch to read input files. (src/lammps.cpp:539)
OMP_NUM_THREADS environment is not set. Defaulting to 1 thread. (src/comm.cpp:98)
  using 1 OpenMP thread(s) per MPI task
units metal
atom_style full
boundary p p p
read_data bazryo3-1.0.lmp
Reading data file ...
  orthogonal box = (0 0 0) to (25.319 25.319 25.319)
  1 by 2 by 2 MPI processor grid
  reading atoms ...
  1081 atoms
  scanning bonds ...
  1 = max bonds/atom
  reading bonds ...
  1 bonds
Finding 1-2 1-3 1-4 neighbors ...
  special bond factors lj:    0        0        0       
  special bond factors coul:  0        0        0       
     1 = max # of 1-2 neighbors
     0 = max # of 1-3 neighbors
     0 = max # of 1-4 neighbors
     1 = max # of special neighbors
  special bonds CPU = 0.000 seconds
  read_data CPU = 0.007 seconds
change_box all triclinic
Changing box ...
  triclinic box = (0 0 0) to (25.319 25.319 25.319) with tilt (0 0 0)
include ff.lmp
##############################################################################################
#### Atoms' types - mass - charge
##############################################################################################
#@ 7   atom types

variable Ba  equal 1
variable Zr  equal 2
variable  Y  equal 3
variable O1  equal 4
variable O2  equal 5
variable O3  equal 6
variable H1  equal 7

##############################################################################################
#### Atoms' masses
##############################################################################################

mass  ${Ba}   137.327
mass  1   137.327
mass  ${Zr}    91.224
mass  2    91.224
mass  ${Y}     88.910
mass  3     88.910
mass  ${O1}    15.996
mass  4    15.996
mass  ${O2}    15.996
mass  5    15.996
mass  ${O3}    15.996
mass  6    15.996
mass  ${H1}     1.008
mass  7     1.008

##############################################################################################
#### Atoms' charges
##############################################################################################

set type ${Ba}  charge     2.000000
set type 1  charge     2.000000
Setting atom values ...
  216 settings made for charge
set type ${Zr}  charge     4.000000
set type 2  charge     4.000000
Setting atom values ...
  216 settings made for charge
set type ${Y}   charge     3.000000
set type 3   charge     3.000000
Setting atom values ...
  0 settings made for charge
set type ${O1}  charge    -1.308698
set type 4  charge    -1.308698
Setting atom values ...
  1 settings made for charge
set type ${O2}  charge    -2.000000
set type 5  charge    -2.000000
Setting atom values ...
  647 settings made for charge
set type ${O3}  charge    -2.000000
set type 6  charge    -2.000000
Setting atom values ...
  0 settings made for charge
set type ${H1}  charge     0.308698
set type 7  charge     0.308698
Setting atom values ...
  1 settings made for charge

##############################################################################################
#### Covalent bonds parameters
##############################################################################################
#@  1   bond types

bond_style harmonic
#@ O1 - H1
# bond_coeff   1      11.504000      0.985357
bond_coeff   1      23.008000      0.985357

##############################################################################################
# Pair potentials
##############################################################################################

variable rmin  equal  8.
variable rmax  equal 10.

pair_style hybrid/overlay buck/mdf ${rmin} ${rmax} lennard/mdf ${rmin} ${rmax} coul/long ${rmax}
pair_style hybrid/overlay buck/mdf 8 ${rmax} lennard/mdf ${rmin} ${rmax} coul/long ${rmax}
pair_style hybrid/overlay buck/mdf 8 10 lennard/mdf ${rmin} ${rmax} coul/long ${rmax}
pair_style hybrid/overlay buck/mdf 8 10 lennard/mdf 8 ${rmax} coul/long ${rmax}
pair_style hybrid/overlay buck/mdf 8 10 lennard/mdf 8 10 coul/long ${rmax}
pair_style hybrid/overlay buck/mdf 8 10 lennard/mdf 8 10 coul/long 10

##############################################################################################
# Buckingham interaction potentials
pair_coeff  ${Ba}  ${O1}  buck/mdf   688.21662   0.392014   0.000
pair_coeff  1  ${O1}  buck/mdf   688.21662   0.392014   0.000
pair_coeff  1  4  buck/mdf   688.21662   0.392014   0.000
pair_coeff  ${Ba}  ${O2}  buck/mdf   972.19945   0.392014   0.000
pair_coeff  1  ${O2}  buck/mdf   972.19945   0.392014   0.000
pair_coeff  1  5  buck/mdf   972.19945   0.392014   0.000
pair_coeff  ${Ba}  ${O3}  buck/mdf   972.19945   0.392014   0.000
pair_coeff  1  ${O3}  buck/mdf   972.19945   0.392014   0.000
pair_coeff  1  6  buck/mdf   972.19945   0.392014   0.000

pair_coeff  ${Y}   ${O1}  buck/mdf   2972.3808   0.267317   0.000
pair_coeff  3   ${O1}  buck/mdf   2972.3808   0.267317   0.000
pair_coeff  3   4  buck/mdf   2972.3808   0.267317   0.000
pair_coeff  ${Y}   ${O2}  buck/mdf   4121.8373   0.280386   0.000
pair_coeff  3   ${O2}  buck/mdf   4121.8373   0.280386   0.000
pair_coeff  3   5  buck/mdf   4121.8373   0.280386   0.000
pair_coeff  ${Y}   ${O3}  buck/mdf   4121.8373   0.280386   0.000
pair_coeff  3   ${O3}  buck/mdf   4121.8373   0.280386   0.000
pair_coeff  3   6  buck/mdf   4121.8373   0.280386   0.000

pair_coeff  ${Zr}  ${O1}  buck/mdf   2195.8712   0.298760   0.000
pair_coeff  2  ${O1}  buck/mdf   2195.8712   0.298760   0.000
pair_coeff  2  4  buck/mdf   2195.8712   0.298760   0.000
pair_coeff  ${Zr}  ${O2}  buck/mdf   3250.8545   0.298760   0.000
pair_coeff  2  ${O2}  buck/mdf   3250.8545   0.298760   0.000
pair_coeff  2  5  buck/mdf   3250.8545   0.298760   0.000
pair_coeff  ${Zr}  ${O3}  buck/mdf   3250.8545   0.298760   0.000
pair_coeff  2  ${O3}  buck/mdf   3250.8545   0.298760   0.000
pair_coeff  2  6  buck/mdf   3250.8545   0.298760   0.000

pair_coeff  ${O1}  ${O1}  buck/mdf   22764.000   0.149000   0.000
pair_coeff  4  ${O1}  buck/mdf   22764.000   0.149000   0.000
pair_coeff  4  4  buck/mdf   22764.000   0.149000   0.000
pair_coeff  ${O1}  ${O2}  buck/mdf   22764.000   0.149000   0.000
pair_coeff  4  ${O2}  buck/mdf   22764.000   0.149000   0.000
pair_coeff  4  5  buck/mdf   22764.000   0.149000   0.000
pair_coeff  ${O1}  ${O3}  buck/mdf   22764.000   0.149000   0.000
pair_coeff  4  ${O3}  buck/mdf   22764.000   0.149000   0.000
pair_coeff  4  6  buck/mdf   22764.000   0.149000   0.000

pair_coeff  ${O2}  ${O2}  buck/mdf   22764.000   0.149000   0.000
pair_coeff  5  ${O2}  buck/mdf   22764.000   0.149000   0.000
pair_coeff  5  5  buck/mdf   22764.000   0.149000   0.000
pair_coeff  ${O2}  ${O3}  buck/mdf   22764.000   0.149000   0.000
pair_coeff  5  ${O3}  buck/mdf   22764.000   0.149000   0.000
pair_coeff  5  6  buck/mdf   22764.000   0.149000   0.000

pair_coeff  ${O3}  ${O3}  buck/mdf   22764.000   0.149000   0.000
pair_coeff  6  ${O3}  buck/mdf   22764.000   0.149000   0.000
pair_coeff  6  6  buck/mdf   22764.000   0.149000   0.000

##############################################################################################
# 12-6 Lennard-Jones potentials
pair_coeff  ${O1}  ${H1}  lennard/mdf    6.391   0.000
pair_coeff  4  ${H1}  lennard/mdf    6.391   0.000
pair_coeff  4  7  lennard/mdf    6.391   0.000
pair_coeff  ${O2}  ${H1}  lennard/mdf    6.391   0.000
pair_coeff  5  ${H1}  lennard/mdf    6.391   0.000
pair_coeff  5  7  lennard/mdf    6.391   0.000
pair_coeff  ${O3}  ${H1}  lennard/mdf    7.800   0.000
pair_coeff  6  ${H1}  lennard/mdf    7.800   0.000
pair_coeff  6  7  lennard/mdf    7.800   0.000

##############################################################################################
# Coulombic interaction
pair_coeff      *      *  coul/long

#########################################################################################################
# Parameters for reciprocal space electrostatics
#########################################################################################################

kspace_style pppm 1.0e-5
kspace_modify fftbench no
# kspace_modify gewald 0.34497565

fix md all nve
fix tst all temp/csvr 1500 1500 0.1 62418
timestep 0.001
velocity all create 1500 96668 mom yes dist gaussian
fix com all momentum 100 linear 1 1 1

run 0 post no
PPPM initialization ...
WARNING: System is not charge neutral, net charge = 1 (src/kspace.cpp:327)
  using 12-bit tables for long-range coulomb (src/kspace.cpp:342)
  G vector (1/distance) = 0.34497565
  grid = 40 40 40
  stencil order = 5
  estimated absolute RMS force accuracy = 0.00013990511
  estimated relative force accuracy = 9.7158722e-06
  using double precision KISS FFT
  3d grid and FFT values/proc = 41209 16000
Generated 0 of 21 mixed pair_coeff terms from geometric mixing rule
Neighbor list info ...
  update: every = 1 steps, delay = 0 steps, check = yes
  max neighbors/atom: 2000, page size: 100000
  master list distance cutoff = 12
  ghost atom cutoff = 12
  binsize = 6, bins = 5 5 5
  3 neighbor lists, perpetual/occasional/extra = 3 0 0
  (1) pair buck/mdf, perpetual, skip from (3)
      attributes: half, newton on
      pair build: skip
      stencil: none
      bin: none
  (2) pair lennard/mdf, perpetual, skip from (3)
      attributes: half, newton on
      pair build: skip
      stencil: none
      bin: none
  (3) pair coul/long, perpetual
      attributes: half, newton on
      pair build: half/bin/newton/tri
      stencil: half/bin/3d/tri
      bin: standard
Per MPI rank memory allocation (min/avg/max) = 11.47 | 11.5 | 11.59 Mbytes
   Step          Temp          E_pair         E_mol          TotEng         Press     
         0   1500          -31399.552      3.129277      -31187.022     -1295.1558    
Loop time of 3.15325e-06 on 4 procs for 0 steps with 1081 atoms

fix ux all store/state 1 xu yu zu
fix ext all external pf/callback 1 1
fix_modify ext energy no
fix_modify ext virial no
compute get_pe all pe

run 0 post no
PPPM initialization ...
  using 12-bit tables for long-range coulomb (src/kspace.cpp:342)
  G vector (1/distance) = 0.34497565
  grid = 40 40 40
  stencil order = 5
  estimated absolute RMS force accuracy = 0.00013990511
  estimated relative force accuracy = 9.7158722e-06
  using double precision KISS FFT
  3d grid and FFT values/proc = 41209 16000
Generated 0 of 21 mixed pair_coeff terms from geometric mixing rule
Per MPI rank memory allocation (min/avg/max) = 12.22 | 12.25 | 12.34 Mbytes
   Step          Temp          E_pair         E_mol          TotEng         Press     
         0   1500          -31399.552      3.129277      -31187.022     -1295.1558    
Loop time of 3.399e-06 on 4 procs for 0 steps with 1081 atoms

run 0 pre yes post no
PPPM initialization ...
  using 12-bit tables for long-range coulomb (src/kspace.cpp:342)
  G vector (1/distance) = 0.34497565
  grid = 40 40 40
  stencil order = 5
  estimated absolute RMS force accuracy = 0.00013990511
  estimated relative force accuracy = 9.7158722e-06
  using double precision KISS FFT
  3d grid and FFT values/proc = 41209 16000
Generated 0 of 21 mixed pair_coeff terms from geometric mixing rule
Per MPI rank memory allocation (min/avg/max) = 12.22 | 12.25 | 12.34 Mbytes
   Step          Temp          E_pair         E_mol          TotEng         Press     
         0   1500          -31399.552      3.129277      -31187.022     -1295.1558    
Loop time of 3.6815e-06 on 4 procs for 0 steps with 1081 atoms

run 1 pre yes post no update no
Per MPI rank memory allocation (min/avg/max) = 12.22 | 12.25 | 12.34 Mbytes
   Step          Temp          E_pair         E_mol          TotEng         Press     
         0   1500          -31399.552      3.129277      -31187.022     -1295.1558    
         1   1498.9795     -31398.391      2.7591202     -31186.373     -851.30615    
Loop time of 0.0126247 on 4 procs for 1 steps with 1081 atoms

run 0 pre yes post no
PPPM initialization ...
  using 12-bit tables for long-range coulomb (src/kspace.cpp:342)
  G vector (1/distance) = 0.34497565
  grid = 40 40 40
  stencil order = 5
  estimated absolute RMS force accuracy = 0.00013990511
  estimated relative force accuracy = 9.7158722e-06
  using double precision KISS FFT
  3d grid and FFT values/proc = 41209 16000
Generated 0 of 21 mixed pair_coeff terms from geometric mixing rule
Per MPI rank memory allocation (min/avg/max) = 12.22 | 12.25 | 12.34 Mbytes
   Step          Temp          E_pair         E_mol          TotEng         Press     
         1   1498.9795     -31398.391      2.7591202     -31186.373     -851.30615    
Loop time of 2.9785e-06 on 4 procs for 0 steps with 1081 atoms

delete_bonds all multi remove
System init for delete_bonds ...
PPPM initialization ...
  using 12-bit tables for long-range coulomb (src/kspace.cpp:342)
  G vector (1/distance) = 0.34497565
  grid = 40 40 40
  stencil order = 5
  estimated absolute RMS force accuracy = 0.00013990511
  estimated relative force accuracy = 9.7158722e-06
  using double precision KISS FFT
  3d grid and FFT values/proc = 41209 16000
Generated 0 of 21 mixed pair_coeff terms from geometric mixing rule
Deleting bonds ...
  0 total bonds, 0 turned on, 0 turned off
  0 total angles, 0 turned on, 0 turned off
  0 total dihedrals, 0 turned on, 0 turned off
  0 total impropers, 0 turned on, 0 turned off
set atom 1 type 7
Setting atom values ...
  1 settings made for type
set atom 1 charge 0.308698
Setting atom values ...
  1 settings made for charge
set atom 1 image 0 0 0
Setting atom values ...
  1 settings made for image
set atom 2 type 5
Setting atom values ...
  1 settings made for type
set atom 2 charge -2.0
Setting atom values ...
  1 settings made for charge
set atom 2 image 0 0 0
Setting atom values ...
  1 settings made for image
set atom 3 type 5
Setting atom values ...
  1 settings made for type
set atom 3 charge -2.0
Setting atom values ...
  1 settings made for charge
set atom 3 image 0 0 0
Setting atom values ...
  1 settings made for image
set atom 4 type 2
Setting atom values ...
  1 settings made for type
set atom 4 charge 4.0
Setting atom values ...
  1 settings made for charge
set atom 4 image 0 0 0
Setting atom values ...
  1 settings made for image
set atom 5 type 1
Setting atom values ...
  1 settings made for type
set atom 5 charge 2.0
Setting atom values ...
  1 settings made for charge
set atom 5 image 0 0 0
Setting atom values ...
  1 settings made for image
set atom 6 type 5
Setting atom values ...
  1 settings made for type
set atom 6 charge -2.0
Setting atom values ...
  1 settings made for charge
set atom 6 image 0 0 0
Setting atom values ...
  1 settings made for image
set atom 7 type 5
Setting atom values ...
  1 settings made for type
set atom 7 charge -2.0
Setting atom values ...
  1 settings made for charge
set atom 7 image 0 0 0
Setting atom values ...
  1 settings made for image
set atom 8 type 5
Setting atom values ...
  1 settings made for type
set atom 8 charge -2.0
Setting atom values ...
  1 settings made for charge
set atom 8 image 0 0 0
Setting atom values ...
  1 settings made for image
set atom 9 type 2
Setting atom values ...
  1 settings made for type
set atom 9 charge 4.0
Setting atom values ...
  1 settings made for charge
set atom 9 image 0 0 0
Setting atom values ...
  1 settings made for image
set atom 10 type 1
Setting atom values ...
  1 settings made for type
set atom 10 charge 2.0
Setting atom values ...
  1 settings made for charge
set atom 10 image 0 0 0
Setting atom values ...
  1 settings made for image
set atom 11 type 5
Setting atom values ...
  1 settings made for type
set atom 11 charge -2.0
Setting atom values ...
  1 settings made for charge
set atom 11 image 0 0 0
Setting atom values ...
  1 settings made for image
set atom 12 type 5
Setting atom values ...
  1 settings made for type
set atom 12 charge -2.0
Setting atom values ...
  1 settings made for charge
set atom 12 image 0 0 0
Setting atom values ...
  1 settings made for image
set atom 13 type 4
Setting atom values ...
  1 settings made for type
set atom 13 charge -1.308698
Setting atom values ...
  1 settings made for charge
set atom 13 image 0 0 0
Setting atom values ...
  1 settings made for image
set atom 14 type 2
Setting atom values ...
  1 settings made for type
set atom 14 charge 4.0
Setting atom values ...
  1 settings made for charge
set atom 14 image 0 0 0
Setting atom values ...
  1 settings made for image
set atom 15 type 1
Setting atom values ...
  1 settings made for type
set atom 15 charge 2.0
Setting atom values ...
  1 settings made for charge
set atom 15 image 0 0 0
Setting atom values ...
  1 settings made for image
set atom 16 type 5
Setting atom values ...
  1 settings made for type
set atom 16 charge -2.0
Setting atom values ...
  1 settings made for charge
set atom 16 image 0 0 0
Setting atom values ...
  1 settings made for image
set atom 17 type 5
Setting atom values ...
  1 settings made for type
set atom 17 charge -2.0
Setting atom values ...
  1 settings made for charge
set atom 17 image 0 0 0
Setting atom values ...
  1 settings made for image
set atom 18 type 2
Setting atom values ...
  1 settings made for type
set atom 18 charge 4.0
Setting atom values ...
  1 settings made for charge
set atom 18 image 0 0 0
Setting atom values ...
  1 settings made for image
set atom 19 type 1
Setting atom values ...
  1 settings made for type
set atom 19 charge 2.0
Setting atom values ...
  1 settings made for charge
set atom 19 image 0 0 0
Setting atom values ...
  1 settings made for image
set atom 20 type 5
Setting atom values ...
  1 settings made for type
set atom 20 charge -2.0
Setting atom values ...
  1 settings made for charge
set atom 20 image 0 0 0
Setting atom values ...
  1 settings made for image
set atom 21 type 5
Setting atom values ...
  1 settings made for type
set atom 21 charge -2.0
Setting atom values ...
  1 settings made for charge
set atom 21 image 0 0 0
Setting atom values ...
  1 settings made for image
set atom 22 type 5
Setting atom values ...
  1 settings made for type
set atom 22 charge -2.0
Setting atom values ...
  1 settings made for charge
set atom 22 image 0 0 0
Setting atom values ...
  1 settings made for image
set atom 23 type 2
Setting atom values ...
  1 settings made for type
set atom 23 charge 4.0
Setting atom values ...
  1 settings made for charge
set atom 23 image 0 0 0
Setting atom values ...
  1 settings made for image
set atom 24 type 1
Setting atom values ...
  1 settings made for type
set atom 24 charge 2.0
Setting atom values ...
  1 settings made for charge
set atom 24 image 0 0 0
Setting atom values ...
  1 settings made for image
set atom 25 type 5
Setting atom values ...
  1 settings made for type
set atom 25 charge -2.0
Setting atom values ...
  1 settings made for charge
set atom 25 image 0 0 0
Setting atom values ...
  1 settings made for image
set atom 26 type 5
Setting atom values ...
  1 settings made for type
set atom 26 charge -2.0
Setting atom values ...
  1 settings made for charge
set atom 26 image 0 0 0
Setting atom values ...
  1 settings made for image
set atom 27 type 2
Setting atom values ...
  1 settings made for type
set atom 27 charge 4.0
Setting atom values ...
  1 settings made for charge
set atom 27 image 0 0 0
Setting atom values ...
  1 settings made for image
set atom 28 type 1
Setting atom values ...
  1 settings made for type
set atom 28 charge 2.0
Setting atom values ...
  1 settings made for charge
set atom 28 image 0 0 0
Setting atom values ...
  1 settings made for image
set atom 29 type 5
Setting atom values ...
  1 settings made for type
set atom 29 charge -2.0
Setting atom values ...
  1 settings made for charge
set atom 29 image 0 0 0
Setting atom values ...
  1 settings made for image
set atom 30 type 5
Setting atom values ...
  1 settings made for type
set atom 30 charge -2.0
Setting atom values ...
  1 settings made for charge
set atom 30 image 0 0 0
Setting atom values ...
  1 settings made for image
set atom 31 type 5
Setting atom values ...
  1 settings made for type
set atom 31 charge -2.0
Setting atom values ...
  1 settings made for charge
set atom 31 image 0 0 0
Setting atom values ...
  1 settings made for image
set atom 32 type 2
Setting atom values ...
  1 settings made for type
set atom 32 charge 4.0
Setting atom values ...
  1 settings made for charge
set atom 32 image 0 0 0
Setting atom values ...
  1 settings made for image
set atom 33 type 1
Setting atom values ...
  1 settings made for type
set atom 33 charge 2.0
Setting atom values ...
  1 settings made for charge
set atom 33 image 0 0 0
Setting atom values ...
  1 settings made for image
set atom 34 type 5
Setting atom values ...
  1 settings made for type
set atom 34 charge -2.0
Setting atom values ...
  1 settings made for charge
set atom 34 image 0 0 0
Setting atom values ...
  1 settings made for image
set atom 35 type 5
Setting atom values ...
  1 settings made for type
set atom 35 charge -2.0
Setting atom values ...
  1 settings made for charge
set atom 35 image 0 0 0
Setting atom values ...
  1 settings made for image
set atom 36 type 5
Setting atom values ...
  1 settings made for type
set atom 36 charge -2.0
Setting atom values ...
  1 settings made for charge
set atom 36 image 0 0 0
Setting atom values ...
  1 settings made for image
set atom 37 type 2
Setting atom values ...
  1 settings made for type
set atom 37 charge 4.0
Setting atom values ...
  1 settings made for charge
set atom 37 image 0 0 0
Setting atom values ...
  1 settings made for image
set atom 38 type 1
Setting atom values ...
  1 settings made for type
set atom 38 charge 2.0
Setting atom values ...
  1 settings made for charge
set atom 38 image 0 0 0
Setting atom values ...
  1 settings made for image
set atom 39 type 5
Setting atom values ...
  1 settings made for type
set atom 39 charge -2.0
Setting atom values ...
  1 settings made for charge
set atom 39 image 0 0 0
Setting atom values ...
  1 settings made for image
set atom 40 type 5
Setting atom values ...
  1 settings made for type
set atom 40 charge -2.0
Setting atom values ...
  1 settings made for charge
set atom 40 image 0 0 0
Setting atom values ...
  1 settings made for image
set atom 41 type 5
Setting atom values ...
  1 settings made for type
set atom 41 charge -2.0
Setting atom values ...
  1 settings made for charge
set atom 41 image 0 0 0
Setting atom values ...
  1 settings made for image
set atom 42 type 2
Setting atom values ...
  1 settings made for type
set atom 42 charge 4.0
Setting atom values ...
  1 settings made for charge
set atom 42 image 0 0 0
Setting atom values ...
  1 settings made for image
set atom 43 type 1
Setting atom values ...
  1 settings made for type
set atom 43 charge 2.0
Setting atom values ...
  1 settings made for charge
set atom 43 image 0 0 0
Setting atom values ...
  1 settings made for image
set atom 44 type 5
Setting atom values ...
  1 settings made for type
set atom 44 charge -2.0
Setting atom values ...
  1 settings made for charge
set atom 44 image 0 0 0
Setting atom values ...
  1 settings made for image
set atom 45 type 5
Setting atom values ...
  1 settings made for type
set atom 45 charge -2.0
Setting atom values ...
  1 settings made for charge
set atom 45 image 0 0 0
Setting atom values ...
  1 settings made for image
set atom 46 type 5
Setting atom values ...
  1 settings made for type
set atom 46 charge -2.0
Setting atom values ...
  1 settings made for charge
set atom 46 image 0 0 0
Setting atom values ...
  1 settings made for image
set atom 47 type 2
Setting atom values ...
  1 settings made for type
set atom 47 charge 4.0
Setting atom values ...
  1 settings made for charge
set atom 47 image 0 0 0
Setting atom values ...
  1 settings made for image
set atom 48 type 1
Setting atom values ...
  1 settings made for type
set atom 48 charge 2.0
Setting atom values ...
  1 settings made for charge
set atom 48 image 0 0 0
Setting atom values ...
  1 settings made for image
set atom 49 type 5
Setting atom values ...
  1 settings made for type
set atom 49 charge -2.0
Setting atom values ...
  1 settings made for charge
set atom 49 image 0 0 0
Setting atom values ...
  1 settings made for image
set atom 50 type 5
Setting atom values ...
  1 settings made for type
set atom 50 charge -2.0
Setting atom values ...
  1 settings made for charge
set atom 50 image 0 0 0
Setting atom values ...
  1 settings made for image
set atom 51 type 5
Setting atom values ...
  1 settings made for type
set atom 51 charge -2.0
Setting atom values ...
  1 settings made for charge
set atom 51 image 0 0 0
Setting atom values ...
  1 settings made for image
set atom 52 type 2
Setting atom values ...
  1 settings made for type
set atom 52 charge 4.0
Setting atom values ...
  1 settings made for charge
set atom 52 image 0 0 0
Setting atom values ...
  1 settings made for image
set atom 53 type 1
Setting atom values ...
  1 settings made for type
set atom 53 charge 2.0
Setting atom values ...
  1 settings made for charge
set atom 53 image 0 0 0
Setting atom values ...
  1 settings made for image
set atom 54 type 5
Setting atom values ...
  1 settings made for type
set atom 54 charge -2.0
Setting atom values ...
  1 settings made for charge
set atom 54 image 0 0 0
Setting atom values ...
  1 settings made for image
set atom 55 type 5
Setting atom values ...
  1 settings made for type
set atom 55 charge -2.0
Setting atom values ...
  1 settings made for charge
set atom 55 image 0 0 0
Setting atom values ...
  1 settings made for image
set atom 56 type 5
Setting atom values ...
  1 settings made for type
set atom 56 charge -2.0
Setting atom values ...
  1 settings made for charge
set atom 56 image 0 0 0
Setting atom values ...
  1 settings made for image
set atom 57 type 2
Setting atom values ...
  1 settings made for type
set atom 57 charge 4.0
Setting atom values ...
  1 settings made for charge
set atom 57 image 0 0 0
Setting atom values ...
  1 settings made for image
set atom 58 type 1
Setting atom values ...
  1 settings made for type
set atom 58 charge 2.0
Setting atom values ...
  1 settings made for charge
set atom 58 image 0 0 0
Setting atom values ...
  1 settings made for image
set atom 59 type 5
Setting atom values ...
  1 settings made for type
set atom 59 charge -2.0
Setting atom values ...
  1 settings made for charge
set atom 59 image 0 0 0
Setting atom values ...
  1 settings made for image
set atom 60 type 5
Setting atom values ...
  1 settings made for type
set atom 60 charge -2.0
Setting atom values ...
  1 settings made for charge
set atom 60 image 0 0 0
Setting atom values ...
  1 settings made for image
set atom 61 type 5
Setting atom values ...
  1 settings made for type
set atom 61 charge -2.0
Setting atom values ...
  1 settings made for charge
set atom 61 image 0 0 0
Setting atom values ...
  1 settings made for image
set atom 62 type 2
Setting atom values ...
  1 settings made for type
set atom 62 charge 4.0
Setting atom values ...
  1 settings made for charge
set atom 62 image 0 0 0
Setting atom values ...
  1 settings made for image
set atom 63 type 1
Setting atom values ...
  1 settings made for type
set atom 63 charge 2.0
Setting atom values ...
  1 settings made for charge
set atom 63 image 0 0 0
Setting atom values ...
  1 settings made for image
set atom 64 type 5
Setting atom values ...
  1 settings made for type
set atom 64 charge -2.0
Setting atom values ...
  1 settings made for charge
set atom 64 image 0 0 0
Setting atom values ...
  1 settings made for image
set atom 65 type 5
Setting atom values ...
  1 settings made for type
set atom 65 charge -2.0
Setting atom values ...
  1 settings made for charge
set atom 65 image 0 0 0
Setting atom values ...
  1 settings made for image
set atom 66 type 5
Setting atom values ...
  1 settings made for type
set atom 66 charge -2.0
Setting atom values ...
  1 settings made for charge
set atom 66 image 0 0 0
Setting atom values ...
  1 settings made for image
set atom 67 type 2
Setting atom values ...
  1 settings made for type
set atom 67 charge 4.0
Setting atom values ...
  1 settings made for charge
set atom 67 image 0 0 0
Setting atom values ...
  1 settings made for image
set atom 68 type 1
Setting atom values ...
  1 settings made for type
set atom 68 charge 2.0
Setting atom values ...
  1 settings made for charge
set atom 68 image 0 0 0
Setting atom values ...
  1 settings made for image
set atom 69 type 5
Setting atom values ...
  1 settings made for type
set atom 69 charge -2.0
Setting atom values ...
  1 settings made for charge
set atom 69 image 0 0 0
Setting atom values ...
  1 settings made for image
set atom 70 type 5
Setting atom values ...
  1 settings made for type
set atom 70 charge -2.0
Setting atom values ...
  1 settings made for charge
set atom 70 image 0 0 0
Setting atom values ...
  1 settings made for image
set atom 71 type 5
Setting atom values ...
  1 settings made for type
set atom 71 charge -2.0
Setting atom values ...
  1 settings made for charge
set atom 71 image 0 0 0
Setting atom values ...
  1 settings made for image
set atom 72 type 2
Setting atom values ...
  1 settings made for type
set atom 72 charge 4.0
Setting atom values ...
  1 settings made for charge
set atom 72 image 0 0 0
Setting atom values ...
  1 settings made for image
set atom 73 type 1
Setting atom values ...
  1 settings made for type
set atom 73 charge 2.0
Setting atom values ...
  1 settings made for charge
set atom 73 image 0 0 0
Setting atom values ...
  1 settings made for image
set atom 74 type 5
Setting atom values ...
  1 settings made for type
set atom 74 charge -2.0
Setting atom values ...
  1 settings made for charge
set atom 74 image 0 0 0
Setting atom values ...
  1 settings made for image
set atom 75 type 5
Setting atom values ...
  1 settings made for type
set atom 75 charge -2.0
Setting atom values ...
  1 settings made for charge
set atom 75 image 0 0 0
Setting atom values ...
  1 settings made for image
set atom 76 type 2
Setting atom values ...
  1 settings made for type
set atom 76 charge 4.0
Setting atom values ...
  1 settings made for charge
set atom 76 image 0 0 0
Setting atom values ...
  1 settings made for image
set atom 77 type 1
Setting atom values ...
  1 settings made for type
set atom 77 charge 2.0
Setting atom values ...
  1 settings made for charge
set atom 77 image 0 0 0
Setting atom values ...
  1 settings made for image
set atom 78 type 5
Setting atom values ...
  1 settings made for type
set atom 78 charge -2.0
Setting atom values ...
  1 settings made for charge
set atom 78 image 0 0 0
Setting atom values ...
  1 settings made for image
set atom 79 type 5
Setting atom values ...
  1 settings made for type
set atom 79 charge -2.0
Setting atom values ...
  1 settings made for charge
set atom 79 image 0 0 0
Setting atom values ...
  1 settings made for image
set atom 80 type 5
Setting atom values ...
  1 settings made for type
set atom 80 charge -2.0
Setting atom values ...
  1 settings made for charge
set atom 80 image 0 0 0
Setting atom values ...
  1 settings made for image
set atom 81 type 2
Setting atom values ...
  1 settings made for type
set atom 81 charge 4.0
Setting atom values ...
  1 settings made for charge
set atom 81 image 0 0 0
Setting atom values ...
  1 settings made for image
set atom 82 type 1
Setting atom values ...
  1 settings made for type
set atom 82 charge 2.0
Setting atom values ...
  1 settings made for charge
set atom 82 image 0 0 0
Setting atom values ...
  1 settings made for image
set atom 83 type 5
Setting atom values ...
  1 settings made for type
set atom 83 charge -2.0
Setting atom values ...
  1 settings made for charge
set atom 83 image 0 0 0
Setting atom values ...
  1 settings made for image
set atom 84 type 5
Setting atom values ...
  1 settings made for type
set atom 84 charge -2.0
Setting atom values ...
  1 settings made for charge
set atom 84 image 0 0 0
Setting atom values ...
  1 settings made for image
set atom 85 type 5
Setting atom values ...
  1 settings made for type
set atom 85 charge -2.0
Setting atom values ...
  1 settings made for charge
set atom 85 image 0 0 0
Setting atom values ...
  1 settings made for image
set atom 86 type 2
Setting atom values ...
  1 settings made for type
set atom 86 charge 4.0
Setting atom values ...
  1 settings made for charge
set atom 86 image 0 0 0
Setting atom values ...
  1 settings made for image
set atom 87 type 1
Setting atom values ...
  1 settings made for type
set atom 87 charge 2.0
Setting atom values ...
  1 settings made for charge
set atom 87 image 0 0 0
Setting atom values ...
  1 settings made for image
set atom 88 type 5
Setting atom values ...
  1 settings made for type
set atom 88 charge -2.0
Setting atom values ...
  1 settings made for charge
set atom 88 image 0 0 0
Setting atom values ...
  1 settings made for image
set atom 89 type 5
Setting atom values ...
  1 settings made for type
set atom 89 charge -2.0
Setting atom values ...
  1 settings made for charge
set atom 89 image 0 0 0
Setting atom values ...
  1 settings made for image
set atom 90 type 5
Setting atom values ...
  1 settings made for type
set atom 90 charge -2.0
Setting atom values ...
  1 settings made for charge
set atom 90 image 0 0 0
Setting atom values ...
  1 settings made for image
set atom 91 type 2
Setting atom values ...
  1 settings made for type
set atom 91 charge 4.0
Setting atom values ...
  1 settings made for charge
set atom 91 image 0 0 0
Setting atom values ...
  1 settings made for image
set atom 92 type 1
Setting atom values ...
  1 settings made for type
set atom 92 charge 2.0
Setting atom values ...
  1 settings made for charge
set atom 92 image 0 0 0
Setting atom values ...
  1 settings made for image
set atom 93 type 5
Setting atom values ...
  1 settings made for type
set atom 93 charge -2.0
Setting atom values ...
  1 settings made for charge
set atom 93 image 0 0 0
Setting atom values ...
  1 settings made for image
set atom 94 type 5
Setting atom values ...
  1 settings made for type
set atom 94 charge -2.0
Setting atom values ...
  1 settings made for charge
set atom 94 image 0 0 0
Setting atom values ...
  1 settings made for image
set atom 95 type 5
Setting atom values ...
  1 settings made for type
set atom 95 charge -2.0
Setting atom values ...
  1 settings made for charge
set atom 95 image 0 0 0
Setting atom values ...
  1 settings made for image
set atom 96 type 2
Setting atom values ...
  1 settings made for type
set atom 96 charge 4.0
Setting atom values ...
  1 settings made for charge
set atom 96 image 0 0 0
Setting atom values ...
  1 settings made for image
set atom 97 type 1
Setting atom values ...
  1 settings made for type
set atom 97 charge 2.0
Setting atom values ...
  1 settings made for charge
set atom 97 image 0 0 0
Setting atom values ...
  1 settings made for image
set atom 98 type 5
Setting atom values ...
  1 settings made for type
set atom 98 charge -2.0
Setting atom values ...
  1 settings made for charge
set atom 98 image 0 0 0
Setting atom values ...
  1 settings made for image
set atom 99 type 5
Setting atom values ...
  1 settings made for type
set atom 99 charge -2.0
Setting atom values ...
  1 settings made for charge
set atom 99 image 0 0 0
Setting atom values ...
  1 settings made for image
set atom 100 type 5
Setting atom values ...
  1 settings made for type
set atom 100 charge -2.0
Setting atom values ...
  1 settings made for charge
set atom 100 image 0 0 0
Setting atom values ...
  1 settings made for image
set atom 101 type 2
Setting atom values ...
  1 settings made for type
set atom 101 charge 4.0
Setting atom values ...
  1 settings made for charge
set atom 101 image 0 0 0
Setting atom values ...
  1 settings made for image
set atom 102 type 1
Setting atom values ...
  1 settings made for type
set atom 102 charge 2.0
Setting atom values ...
  1 settings made for charge
set atom 102 image 0 0 0
Setting atom values ...
  1 settings made for image
set atom 103 type 5
Setting atom values ...
  1 settings made for type
set atom 103 charge -2.0
Setting atom values ...
  1 settings made for charge
set atom 103 image 0 0 0
Setting atom values ...
  1 settings made for image
set atom 104 type 5
Setting atom values ...
  1 settings made for type
set atom 104 charge -2.0
Setting atom values ...
  1 settings made for charge
set atom 104 image 0 0 0
Setting atom values ...
  1 settings made for image
set atom 105 type 5
Setting atom values ...
  1 settings made for type
set atom 105 charge -2.0
Setting atom values ...
  1 settings made for charge
set atom 105 image 0 0 0
Setting atom values ...
  1 settings made for image
set atom 106 type 2
Setting atom values ...
  1 settings made for type
set atom 106 charge 4.0
Setting atom values ...
  1 settings made for charge
set atom 106 image 0 0 0
Setting atom values ...
  1 settings made for image
set atom 107 type 1
Setting atom values ...
  1 settings made for type
set atom 107 charge 2.0
Setting atom values ...
  1 settings made for charge
set atom 107 image 0 0 0
Setting atom values ...
  1 settings made for image
set atom 108 type 5
Setting atom values ...
  1 settings made for type
set atom 108 charge -2.0
Setting atom values ...
  1 settings made for charge
set atom 108 image 0 0 0
Setting atom values ...
  1 settings made for image
set atom 109 type 5
Setting atom values ...
  1 settings made for type
set atom 109 charge -2.0
Setting atom values ...
  1 settings made for charge
set atom 109 image 0 0 0
Setting atom values ...
  1 settings made for image
set atom 110 type 5
Setting atom values ...
  1 settings made for type
set atom 110 charge -2.0
Setting atom values ...
  1 settings made for charge
set atom 110 image 0 0 0
Setting atom values ...
  1 settings made for image
set atom 111 type 2
Setting atom values ...
  1 settings made for type
set atom 111 charge 4.0
Setting atom values ...
  1 settings made for charge
set atom 111 image 0 0 0
Setting atom values ...
  1 settings made for image
set atom 112 type 1
Setting atom values ...
  1 settings made for type
set atom 112 charge 2.0
Setting atom values ...
  1 settings made for charge
set atom 112 image 0 0 0
Setting atom values ...
  1 settings made for image
set atom 113 type 5
Setting atom values ...
  1 settings made for type
set atom 113 charge -2.0
Setting atom values ...
  1 settings made for charge
set atom 113 image 0 0 0
Setting atom values ...
  1 settings made for image
set atom 114 type 5
Setting atom values ...
  1 settings made for type
set atom 114 charge -2.0
Setting atom values ...
  1 settings made for charge
set atom 114 image 0 0 0
Setting atom values ...
  1 settings made for image
set atom 115 type 5
Setting atom values ...
  1 settings made for type
set atom 115 charge -2.0
Setting atom values ...
  1 settings made for charge
set atom 115 image 0 0 0
Setting atom values ...
  1 settings made for image
set atom 116 type 2
Setting atom values ...
  1 settings made for type
set atom 116 charge 4.0
Setting atom values ...
  1 settings made for charge
set atom 116 image 0 0 0
Setting atom values ...
  1 settings made for image
set atom 117 type 1
Setting atom values ...
  1 settings made for type
set atom 117 charge 2.0
Setting atom values ...
  1 settings made for charge
set atom 117 image 0 0 0
Setting atom values ...
  1 settings made for image
set atom 118 type 5
Setting atom values ...
  1 settings made for type
set atom 118 charge -2.0
Setting atom values ...
  1 settings made for charge
set atom 118 image 0 0 0
Setting atom values ...
  1 settings made for image
set atom 119 type 5
Setting atom values ...
  1 settings made for type
set atom 119 charge -2.0
Setting atom values ...
  1 settings made for charge
set atom 119 image 0 0 0
Setting atom values ...
  1 settings made for image
set atom 120 type 5
Setting atom values ...
  1 settings made for type
set atom 120 charge -2.0
Setting atom values ...
  1 settings made for charge
set atom 120 image 0 0 0
Setting atom values ...
  1 settings made for image
set atom 121 type 2
Setting atom values ...
  1 settings made for type
set atom 121 charge 4.0
Setting atom values ...
  1 settings made for charge
set atom 121 image 0 0 0
Setting atom values ...
  1 settings made for image
set atom 122 type 1
Setting atom values ...
  1 settings made for type
set atom 122 charge 2.0
Setting atom values ...
  1 settings made for charge
set atom 122 image 0 0 0
Setting atom values ...
  1 settings made for image
set atom 123 type 5
Setting atom values ...
  1 settings made for type
set atom 123 charge -2.0
Setting atom values ...
  1 settings made for charge
set atom 123 image 0 0 0
Setting atom values ...
  1 settings made for image
set atom 124 type 5
Setting atom values ...
  1 settings made for type
set atom 124 charge -2.0
Setting atom values ...
  1 settings made for charge
set atom 124 image 0 0 0
Setting atom values ...
  1 settings made for image
set atom 125 type 5
Setting atom values ...
  1 settings made for type
set atom 125 charge -2.0
Setting atom values ...
  1 settings made for charge
set atom 125 image 0 0 0
Setting atom values ...
  1 settings made for image
set atom 126 type 2
Setting atom values ...
  1 settings made for type
set atom 126 charge 4.0
Setting atom values ...
  1 settings made for charge
set atom 126 image 0 0 0
Setting atom values ...
  1 settings made for image
set atom 127 type 1
Setting atom values ...
  1 settings made for type
set atom 127 charge 2.0
Setting atom values ...
  1 settings made for charge
set atom 127 image 0 0 0
Setting atom values ...
  1 settings made for image
set atom 128 type 5
Setting atom values ...
  1 settings made for type
set atom 128 charge -2.0
Setting atom values ...
  1 settings made for charge
set atom 128 image 0 0 0
Setting atom values ...
  1 settings made for image
set atom 129 type 5
Setting atom values ...
  1 settings made for type
set atom 129 charge -2.0
Setting atom values ...
  1 settings made for charge
set atom 129 image 0 0 0
Setting atom values ...
  1 settings made for image
set atom 130 type 5
Setting atom values ...
  1 settings made for type
set atom 130 charge -2.0
Setting atom values ...
  1 settings made for charge
set atom 130 image 0 0 0
Setting atom values ...
  1 settings made for image
set atom 131 type 2
Setting atom values ...
  1 settings made for type
set atom 131 charge 4.0
Setting atom values ...
  1 settings made for charge
set atom 131 image 0 0 0
Setting atom values ...
  1 settings made for image
set atom 132 type 1
Setting atom values ...
  1 settings made for type
set atom 132 charge 2.0
Setting atom values ...
  1 settings made for charge
set atom 132 image 0 0 0
Setting atom values ...
  1 settings made for image
set atom 133 type 5
Setting atom values ...
  1 settings made for type
set atom 133 charge -2.0
Setting atom values ...
  1 settings made for charge
set atom 133 image 0 0 0
Setting atom values ...
  1 settings made for image
set atom 134 type 5
Setting atom values ...
  1 settings made for type
set atom 134 charge -2.0
Setting atom values ...
  1 settings made for charge
set atom 134 image 0 0 0
Setting atom values ...
  1 settings made for image
set atom 135 type 5
Setting atom values ...
  1 settings made for type
set atom 135 charge -2.0
Setting atom values ...
  1 settings made for charge
set atom 135 image 0 0 0
Setting atom values ...
  1 settings made for image
set atom 136 type 5
Setting atom values ...
  1 settings made for type
set atom 136 charge -2.0
Setting atom values ...
  1 settings made for charge
set atom 136 image 0 0 0
Setting atom values ...
  1 settings made for image
set atom 137 type 2
Setting atom values ...
  1 settings made for type
set atom 137 charge 4.0
Setting atom values ...
  1 settings made for charge
set atom 137 image 0 0 0
Setting atom values ...
  1 settings made for image
set atom 138 type 1
Setting atom values ...
  1 settings made for type
set atom 138 charge 2.0
Setting atom values ...
  1 settings made for charge
set atom 138 image 0 0 0
Setting atom values ...
  1 settings made for image
set atom 139 type 5
Setting atom values ...
  1 settings made for type
set atom 139 charge -2.0
Setting atom values ...
  1 settings made for charge
set atom 139 image 0 0 0
Setting atom values ...
  1 settings made for image
set atom 140 type 5
Setting atom values ...
  1 settings made for type
set atom 140 charge -2.0
Setting atom values ...
  1 settings made for charge
set atom 140 image 0 0 0
Setting atom values ...
  1 settings made for image
set atom 141 type 5
Setting atom values ...
  1 settings made for type
set atom 141 charge -2.0
Setting atom values ...
  1 settings made for charge
set atom 141 image 0 0 0
Setting atom values ...
  1 settings made for image
set atom 142 type 2
Setting atom values ...
  1 settings made for type
set atom 142 charge 4.0
Setting atom values ...
  1 settings made for charge
set atom 142 image 0 0 0
Setting atom values ...
  1 settings made for image
set atom 143 type 1
Setting atom values ...
  1 settings made for type
set atom 143 charge 2.0
Setting atom values ...
  1 settings made for charge
set atom 143 image 0 0 0
Setting atom values ...
  1 settings made for image
set atom 144 type 5
Setting atom values ...
  1 settings made for type
set atom 144 charge -2.0
Setting atom values ...
  1 settings made for charge
set atom 144 image 0 0 0
Setting atom values ...
  1 settings made for image
set atom 145 type 5
Setting atom values ...
  1 settings made for type
set atom 145 charge -2.0
Setting atom values ...
  1 settings made for charge
set atom 145 image 0 0 0
Setting atom values ...
  1 settings made for image
set atom 146 type 5
Setting atom values ...
  1 settings made for type
set atom 146 charge -2.0
Setting atom values ...
  1 settings made for charge
set atom 146 image 0 0 0
Setting atom values ...
  1 settings made for image
set atom 147 type 2
Setting atom values ...
  1 settings made for type
set atom 147 charge 4.0
Setting atom values ...
  1 settings made for charge
set atom 147 image 0 0 0
Setting atom values ...
  1 settings made for image
set atom 148 type 1
Setting atom values ...
  1 settings made for type
set atom 148 charge 2.0
Setting atom values ...
  1 settings made for charge
set atom 148 image 0 0 0
Setting atom values ...
  1 settings made for image
set atom 149 type 5
Setting atom values ...
  1 settings made for type
set atom 149 charge -2.0
Setting atom values ...
  1 settings made for charge
set atom 149 image 0 0 0
Setting atom values ...
  1 settings made for image
set atom 150 type 5
Setting atom values ...
  1 settings made for type
set atom 150 charge -2.0
Setting atom values ...
  1 settings made for charge
set atom 150 image 0 0 0
Setting atom values ...
  1 settings made for image
set atom 151 type 5
Setting atom values ...
  1 settings made for type
set atom 151 charge -2.0
Setting atom values ...
  1 settings made for charge
set atom 151 image 0 0 0
Setting atom values ...
  1 settings made for image
set atom 152 type 2
Setting atom values ...
  1 settings made for type
set atom 152 charge 4.0
Setting atom values ...
  1 settings made for charge
set atom 152 image 0 0 0
Setting atom values ...
  1 settings made for image
set atom 153 type 1
Setting atom values ...
  1 settings made for type
set atom 153 charge 2.0
Setting atom values ...
  1 settings made for charge
set atom 153 image 0 0 0
Setting atom values ...
  1 settings made for image
set atom 154 type 5
Setting atom values ...
  1 settings made for type
set atom 154 charge -2.0
Setting atom values ...
  1 settings made for charge
set atom 154 image 0 0 0
Setting atom values ...
  1 settings made for image
set atom 155 type 5
Setting atom values ...
  1 settings made for type
set atom 155 charge -2.0
Setting atom values ...
  1 settings made for charge
set atom 155 image 0 0 0
Setting atom values ...
  1 settings made for image
set atom 156 type 5
Setting atom values ...
  1 settings made for type
set atom 156 charge -2.0
Setting atom values ...
  1 settings made for charge
set atom 156 image 0 0 0
Setting atom values ...
  1 settings made for image
set atom 157 type 2
Setting atom values ...
  1 settings made for type
set atom 157 charge 4.0
Setting atom values ...
  1 settings made for charge
set atom 157 image 0 0 0
Setting atom values ...
  1 settings made for image
set atom 158 type 1
Setting atom values ...
  1 settings made for type
set atom 158 charge 2.0
Setting atom values ...
  1 settings made for charge
set atom 158 image 0 0 0
Setting atom values ...
  1 settings made for image
set atom 159 type 5
Setting atom values ...
  1 settings made for type
set atom 159 charge -2.0
Setting atom values ...
  1 settings made for charge
set atom 159 image 0 0 0
Setting atom values ...
  1 settings made for image
set atom 160 type 5
Setting atom values ...
  1 settings made for type
set atom 160 charge -2.0
Setting atom values ...
  1 settings made for charge
set atom 160 image 0 0 0
Setting atom values ...
  1 settings made for image
set atom 161 type 5
Setting atom values ...
  1 settings made for type
set atom 161 charge -2.0
Setting atom values ...
  1 settings made for charge
set atom 161 image 0 0 0
Setting atom values ...
  1 settings made for image
set atom 162 type 2
Setting atom values ...
  1 settings made for type
set atom 162 charge 4.0
Setting atom values ...
  1 settings made for charge
set atom 162 image 0 0 0
Setting atom values ...
  1 settings made for image
set atom 163 type 1
Setting atom values ...
  1 settings made for type
set atom 163 charge 2.0
Setting atom values ...
  1 settings made for charge
set atom 163 image 0 0 0
Setting atom values ...
  1 settings made for image
set atom 164 type 5
Setting atom values ...
  1 settings made for type
set atom 164 charge -2.0
Setting atom values ...
  1 settings made for charge
set atom 164 image 0 0 0
Setting atom values ...
  1 settings made for image
set atom 165 type 5
Setting atom values ...
  1 settings made for type
set atom 165 charge -2.0
Setting atom values ...
  1 settings made for charge
set atom 165 image 0 0 0
Setting atom values ...
  1 settings made for image
set atom 166 type 5
Setting atom values ...
  1 settings made for type
set atom 166 charge -2.0
Setting atom values ...
  1 settings made for charge
set atom 166 image 0 0 0
Setting atom values ...
  1 settings made for image
set atom 167 type 2
Setting atom values ...
  1 settings made for type
set atom 167 charge 4.0
Setting atom values ...
  1 settings made for charge
set atom 167 image 0 0 0
Setting atom values ...
  1 settings made for image
set atom 168 type 1
Setting atom values ...
  1 settings made for type
set atom 168 charge 2.0
Setting atom values ...
  1 settings made for charge
set atom 168 image 0 0 0
Setting atom values ...
  1 settings made for image
set atom 169 type 5
Setting atom values ...
  1 settings made for type
set atom 169 charge -2.0
Setting atom values ...
  1 settings made for charge
set atom 169 image 0 0 0
Setting atom values ...
  1 settings made for image
set atom 170 type 5
Setting atom values ...
  1 settings made for type
set atom 170 charge -2.0
Setting atom values ...
  1 settings made for charge
set atom 170 image 0 0 0
Setting atom values ...
  1 settings made for image
set atom 171 type 5
Setting atom values ...
  1 settings made for type
set atom 171 charge -2.0
Setting atom values ...
  1 settings made for charge
set atom 171 image 0 0 0
Setting atom values ...
  1 settings made for image
set atom 172 type 2
Setting atom values ...
  1 settings made for type
set atom 172 charge 4.0
Setting atom values ...
  1 settings made for charge
set atom 172 image 0 0 0
Setting atom values ...
  1 settings made for image
set atom 173 type 1
Setting atom values ...
  1 settings made for type
set atom 173 charge 2.0
Setting atom values ...
  1 settings made for charge
set atom 173 image 0 0 0
Setting atom values ...
  1 settings made for image
set atom 174 type 5
Setting atom values ...
  1 settings made for type
set atom 174 charge -2.0
Setting atom values ...
  1 settings made for charge
set atom 174 image 0 0 0
Setting atom values ...
  1 settings made for image
set atom 175 type 5
Setting atom values ...
  1 settings made for type
set atom 175 charge -2.0
Setting atom values ...
  1 settings made for charge
set atom 175 image 0 0 0
Setting atom values ...
  1 settings made for image
set atom 176 type 5
Setting atom values ...
  1 settings made for type
set atom 176 charge -2.0
Setting atom values ...
  1 settings made for charge
set atom 176 image 0 0 0
Setting atom values ...
  1 settings made for image
set atom 177 type 2
Setting atom values ...
  1 settings made for type
set atom 177 charge 4.0
Setting atom values ...
  1 settings made for charge
set atom 177 image 0 0 0
Setting atom values ...
  1 settings made for image
set atom 178 type 1
Setting atom values ...
  1 settings made for type
set atom 178 charge 2.0
Setting atom values ...
  1 settings made for charge
set atom 178 image 0 0 0
Setting atom values ...
  1 settings made for image
set atom 179 type 5
Setting atom values ...
  1 settings made for type
set atom 179 charge -2.0
Setting atom values ...
  1 settings made for charge
set atom 179 image 0 0 0
Setting atom values ...
  1 settings made for image
set atom 180 type 5
Setting atom values ...
  1 settings made for type
set atom 180 charge -2.0
Setting atom values ...
  1 settings made for charge
set atom 180 image 0 0 0
Setting atom values ...
  1 settings made for image
set atom 181 type 5
Setting atom values ...
  1 settings made for type
set atom 181 charge -2.0
Setting atom values ...
  1 settings made for charge
set atom 181 image 0 0 0
Setting atom values ...
  1 settings made for image
set atom 182 type 2
Setting atom values ...
  1 settings made for type
set atom 182 charge 4.0
Setting atom values ...
  1 settings made for charge
set atom 182 image 0 0 0
Setting atom values ...
  1 settings made for image
set atom 183 type 1
Setting atom values ...
  1 settings made for type
set atom 183 charge 2.0
Setting atom values ...
  1 settings made for charge
set atom 183 image 0 0 0
Setting atom values ...
  1 settings made for image
set atom 184 type 5
Setting atom values ...
  1 settings made for type
set atom 184 charge -2.0
Setting atom values ...
  1 settings made for charge
set atom 184 image 0 0 0
Setting atom values ...
  1 settings made for image
set atom 185 type 5
Setting atom values ...
  1 settings made for type
set atom 185 charge -2.0
Setting atom values ...
  1 settings made for charge
set atom 185 image 0 0 0
Setting atom values ...
  1 settings made for image
set atom 186 type 5
Setting atom values ...
  1 settings made for type
set atom 186 charge -2.0
Setting atom values ...
  1 settings made for charge
set atom 186 image 0 0 0
Setting atom values ...
  1 settings made for image
set atom 187 type 2
Setting atom values ...
  1 settings made for type
set atom 187 charge 4.0
Setting atom values ...
  1 settings made for charge
set atom 187 image 0 0 0
Setting atom values ...
  1 settings made for image
set atom 188 type 1
Setting atom values ...
  1 settings made for type
set atom 188 charge 2.0
Setting atom values ...
  1 settings made for charge
set atom 188 image 0 0 0
Setting atom values ...
  1 settings made for image
set atom 189 type 5
Setting atom values ...
  1 settings made for type
set atom 189 charge -2.0
Setting atom values ...
  1 settings made for charge
set atom 189 image 0 0 0
Setting atom values ...
  1 settings made for image
set atom 190 type 5
Setting atom values ...
  1 settings made for type
set atom 190 charge -2.0
Setting atom values ...
  1 settings made for charge
set atom 190 image 0 0 0
Setting atom values ...
  1 settings made for image
set atom 191 type 5
Setting atom values ...
  1 settings made for type
set atom 191 charge -2.0
Setting atom values ...
  1 settings made for charge
set atom 191 image 0 0 0
Setting atom values ...
  1 settings made for image
set atom 192 type 2
Setting atom values ...
  1 settings made for type
set atom 192 charge 4.0
Setting atom values ...
  1 settings made for charge
set atom 192 image 0 0 0
Setting atom values ...
  1 settings made for image
set atom 193 type 1
Setting atom values ...
  1 settings made for type
set atom 193 charge 2.0
Setting atom values ...
  1 settings made for charge
set atom 193 image 0 0 0
Setting atom values ...
  1 settings made for image
set atom 194 type 5
Setting atom values ...
  1 settings made for type
set atom 194 charge -2.0
Setting atom values ...
  1 settings made for charge
set atom 194 image 0 0 0
Setting atom values ...
  1 settings made for image
set atom 195 type 5
Setting atom values ...
  1 settings made for type
set atom 195 charge -2.0
Setting atom values ...
  1 settings made for charge
set atom 195 image 0 0 0
Setting atom values ...
  1 settings made for image
set atom 196 type 5
Setting atom values ...
  1 settings made for type
set atom 196 charge -2.0
Setting atom values ...
  1 settings made for charge
set atom 196 image 0 0 0
Setting atom values ...
  1 settings made for image
set atom 197 type 2
Setting atom values ...
  1 settings made for type
set atom 197 charge 4.0
Setting atom values ...
  1 settings made for charge
set atom 197 image 0 0 0
Setting atom values ...
  1 settings made for image
set atom 198 type 1
Setting atom values ...
  1 settings made for type
set atom 198 charge 2.0
Setting atom values ...
  1 settings made for charge
set atom 198 image 0 0 0
Setting atom values ...
  1 settings made for image
set atom 199 type 5
Setting atom values ...
  1 settings made for type
set atom 199 charge -2.0
Setting atom values ...
  1 settings made for charge
set atom 199 image 0 0 0
Setting atom values ...
  1 settings made for image
set atom 200 type 5
Setting atom values ...
  1 settings made for type
set atom 200 charge -2.0
Setting atom values ...
  1 settings made for charge
set atom 200 image 0 0 0
Setting atom values ...
  1 settings made for image
set atom 201 type 5
Setting atom values ...
  1 settings made for type
set atom 201 charge -2.0
Setting atom values ...
  1 settings made for charge
set atom 201 image 0 0 0
Setting atom values ...
  1 settings made for image
set atom 202 type 2
Setting atom values ...
  1 settings made for type
set atom 202 charge 4.0
Setting atom values ...
  1 settings made for charge
set atom 202 image 0 0 0
Setting atom values ...
  1 settings made for image
set atom 203 type 1
Setting atom values ...
  1 settings made for type
set atom 203 charge 2.0
Setting atom values ...
  1 settings made for charge
set atom 203 image 0 0 0
Setting atom values ...
  1 settings made for image
set atom 204 type 5
Setting atom values ...
  1 settings made for type
set atom 204 charge -2.0
Setting atom values ...
  1 settings made for charge
set atom 204 image 0 0 0
Setting atom values ...
  1 settings made for image
set atom 205 type 5
Setting atom values ...
  1 settings made for type
set atom 205 charge -2.0
Setting atom values ...
  1 settings made for charge
set atom 205 image 0 0 0
Setting atom values ...
  1 settings made for image
set atom 206 type 5
Setting atom values ...
  1 settings made for type
set atom 206 charge -2.0
Setting atom values ...
  1 settings made for charge
set atom 206 image 0 0 0
Setting atom values ...
  1 settings made for image
set atom 207 type 2
Setting atom values ...
  1 settings made for type
set atom 207 charge 4.0
Setting atom values ...
  1 settings made for charge
set atom 207 image 0 0 0
Setting atom values ...
  1 settings made for image
set atom 208 type 1
Setting atom values ...
  1 settings made for type
set atom 208 charge 2.0
Setting atom values ...
  1 settings made for charge
set atom 208 image 0 0 0
Setting atom values ...
  1 settings made for image
set atom 209 type 5
Setting atom values ...
  1 settings made for type
set atom 209 charge -2.0
Setting atom values ...
  1 settings made for charge
set atom 209 image 0 0 0
Setting atom values ...
  1 settings made for image
set atom 210 type 5
Setting atom values ...
  1 settings made for type
set atom 210 charge -2.0
Setting atom values ...
  1 settings made for charge
set atom 210 image 0 0 0
Setting atom values ...
  1 settings made for image
set atom 211 type 5
Setting atom values ...
  1 settings made for type
set atom 211 charge -2.0
Setting atom values ...
  1 settings made for charge
set atom 211 image 0 0 0
Setting atom values ...
  1 settings made for image
set atom 212 type 2
Setting atom values ...
  1 settings made for type
set atom 212 charge 4.0
Setting atom values ...
  1 settings made for charge
set atom 212 image 0 0 0
Setting atom values ...
  1 settings made for image
set atom 213 type 1
Setting atom values ...
  1 settings made for type
set atom 213 charge 2.0
Setting atom values ...
  1 settings made for charge
set atom 213 image 0 0 0
Setting atom values ...
  1 settings made for image
set atom 214 type 5
Setting atom values ...
  1 settings made for type
set atom 214 charge -2.0
Setting atom values ...
  1 settings made for charge
set atom 214 image 0 0 0
Setting atom values ...
  1 settings made for image
set atom 215 type 5
Setting atom values ...
  1 settings made for type
set atom 215 charge -2.0
Setting atom values ...
  1 settings made for charge
set atom 215 image 0 0 0
Setting atom values ...
  1 settings made for image
set atom 216 type 5
Setting atom values ...
  1 settings made for type
set atom 216 charge -2.0
Setting atom values ...
  1 settings made for charge
set atom 216 image 0 0 0
Setting atom values ...
  1 settings made for image
set atom 217 type 2
Setting atom values ...
  1 settings made for type
set atom 217 charge 4.0
Setting atom values ...
  1 settings made for charge
set atom 217 image 0 0 0
Setting atom values ...
  1 settings made for image
set atom 218 type 1
Setting atom values ...
  1 settings made for type
set atom 218 charge 2.0
Setting atom values ...
  1 settings made for charge
set atom 218 image 0 0 0
Setting atom values ...
  1 settings made for image
set atom 219 type 5
Setting atom values ...
  1 settings made for type
set atom 219 charge -2.0
Setting atom values ...
  1 settings made for charge
set atom 219 image 0 0 0
Setting atom values ...
  1 settings made for image
set atom 220 type 5
Setting atom values ...
  1 settings made for type
set atom 220 charge -2.0
Setting atom values ...
  1 settings made for charge
set atom 220 image 0 0 0
Setting atom values ...
  1 settings made for image
set atom 221 type 5
Setting atom values ...
  1 settings made for type
set atom 221 charge -2.0
Setting atom values ...
  1 settings made for charge
set atom 221 image 0 0 0
Setting atom values ...
  1 settings made for image
set atom 222 type 2
Setting atom values ...
  1 settings made for type
set atom 222 charge 4.0
Setting atom values ...
  1 settings made for charge
set atom 222 image 0 0 0
Setting atom values ...
  1 settings made for image
set atom 223 type 1
Setting atom values ...
  1 settings made for type
set atom 223 charge 2.0
Setting atom values ...
  1 settings made for charge
set atom 223 image 0 0 0
Setting atom values ...
  1 settings made for image
set atom 224 type 5
Setting atom values ...
  1 settings made for type
set atom 224 charge -2.0
Setting atom values ...
  1 settings made for charge
set atom 224 image 0 0 0
Setting atom values ...
  1 settings made for image
set atom 225 type 5
Setting atom values ...
  1 settings made for type
set atom 225 charge -2.0
Setting atom values ...
  1 settings made for charge
set atom 225 image 0 0 0
Setting atom values ...
  1 settings made for image
set atom 226 type 5
Setting atom values ...
  1 settings made for type
set atom 226 charge -2.0
Setting atom values ...
  1 settings made for charge
set atom 226 image 0 0 0
Setting atom values ...
  1 settings made for image
set atom 227 type 2
Setting atom values ...
  1 settings made for type
set atom 227 charge 4.0
Setting atom values ...
  1 settings made for charge
set atom 227 image 0 0 0
Setting atom values ...
  1 settings made for image
set atom 228 type 1
Setting atom values ...
  1 settings made for type
set atom 228 charge 2.0
Setting atom values ...
  1 settings made for charge
set atom 228 image 0 0 0
Setting atom values ...
  1 settings made for image
set atom 229 type 5
Setting atom values ...
  1 settings made for type
set atom 229 charge -2.0
Setting atom values ...
  1 settings made for charge
set atom 229 image 0 0 0
Setting atom values ...
  1 settings made for image
set atom 230 type 5
Setting atom values ...
  1 settings made for type
set atom 230 charge -2.0
Setting atom values ...
  1 settings made for charge
set atom 230 image 0 0 0
Setting atom values ...
  1 settings made for image
set atom 231 type 5
Setting atom values ...
  1 settings made for type
set atom 231 charge -2.0
Setting atom values ...
  1 settings made for charge
set atom 231 image 0 0 0
Setting atom values ...
  1 settings made for image
set atom 232 type 2
Setting atom values ...
  1 settings made for type
set atom 232 charge 4.0
Setting atom values ...
  1 settings made for charge
set atom 232 image 0 0 0
Setting atom values ...
  1 settings made for image
set atom 233 type 1
Setting atom values ...
  1 settings made for type
set atom 233 charge 2.0
Setting atom values ...
  1 settings made for charge
set atom 233 image 0 0 0
Setting atom values ...
  1 settings made for image
set atom 234 type 5
Setting atom values ...
  1 settings made for type
set atom 234 charge -2.0
Setting atom values ...
  1 settings made for charge
set atom 234 image 0 0 0
Setting atom values ...
  1 settings made for image
set atom 235 type 5
Setting atom values ...
  1 settings made for type
set atom 235 charge -2.0
Setting atom values ...
  1 settings made for charge
set atom 235 image 0 0 0
Setting atom values ...
  1 settings made for image
set atom 236 type 5
Setting atom values ...
  1 settings made for type
set atom 236 charge -2.0
Setting atom values ...
  1 settings made for charge
set atom 236 image 0 0 0
Setting atom values ...
  1 settings made for image
set atom 237 type 2
Setting atom values ...
  1 settings made for type
set atom 237 charge 4.0
Setting atom values ...
  1 settings made for charge
set atom 237 image 0 0 0
Setting atom values ...
  1 settings made for image
set atom 238 type 1
Setting atom values ...
  1 settings made for type
set atom 238 charge 2.0
Setting atom values ...
  1 settings made for charge
set atom 238 image 0 0 0
Setting atom values ...
  1 settings made for image
set atom 239 type 5
Setting atom values ...
  1 settings made for type
set atom 239 charge -2.0
Setting atom values ...
  1 settings made for charge
set atom 239 image 0 0 0
Setting atom values ...
  1 settings made for image
set atom 240 type 5
Setting atom values ...
  1 settings made for type
set atom 240 charge -2.0
Setting atom values ...
  1 settings made for charge
set atom 240 image 0 0 0
Setting atom values ...
  1 settings made for image
set atom 241 type 5
Setting atom values ...
  1 settings made for type
set atom 241 charge -2.0
Setting atom values ...
  1 settings made for charge
set atom 241 image 0 0 0
Setting atom values ...
  1 settings made for image
set atom 242 type 2
Setting atom values ...
  1 settings made for type
set atom 242 charge 4.0
Setting atom values ...
  1 settings made for charge
set atom 242 image 0 0 0
Setting atom values ...
  1 settings made for image
set atom 243 type 1
Setting atom values ...
  1 settings made for type
set atom 243 charge 2.0
Setting atom values ...
  1 settings made for charge
set atom 243 image 0 0 0
Setting atom values ...
  1 settings made for image
set atom 244 type 5
Setting atom values ...
  1 settings made for type
set atom 244 charge -2.0
Setting atom values ...
  1 settings made for charge
set atom 244 image 0 0 0
Setting atom values ...
  1 settings made for image
set atom 245 type 5
Setting atom values ...
  1 settings made for type
set atom 245 charge -2.0
Setting atom values ...
  1 settings made for charge
set atom 245 image 0 0 0
Setting atom values ...
  1 settings made for image
set atom 246 type 5
Setting atom values ...
  1 settings made for type
set atom 246 charge -2.0
Setting atom values ...
  1 settings made for charge
set atom 246 image 0 0 0
Setting atom values ...
  1 settings made for image
set atom 247 type 2
Setting atom values ...
  1 settings made for type
set atom 247 charge 4.0
Setting atom values ...
  1 settings made for charge
set atom 247 image 0 0 0
Setting atom values ...
  1 settings made for image
set atom 248 type 1
Setting atom values ...
  1 settings made for type
set atom 248 charge 2.0
Setting atom values ...
  1 settings made for charge
set atom 248 image 0 0 0
Setting atom values ...
  1 settings made for image
set atom 249 type 5
Setting atom values ...
  1 settings made for type
set atom 249 charge -2.0
Setting atom values ...
  1 settings made for charge
set atom 249 image 0 0 0
Setting atom values ...
  1 settings made for image
set atom 250 type 5
Setting atom values ...
  1 settings made for type
set atom 250 charge -2.0
Setting atom values ...
  1 settings made for charge
set atom 250 image 0 0 0
Setting atom values ...
  1 settings made for image
set atom 251 type 5
Setting atom values ...
  1 settings made for type
set atom 251 charge -2.0
Setting atom values ...
  1 settings made for charge
set atom 251 image 0 0 0
Setting atom values ...
  1 settings made for image
set atom 252 type 2
Setting atom values ...
  1 settings made for type
set atom 252 charge 4.0
Setting atom values ...
  1 settings made for charge
set atom 252 image 0 0 0
Setting atom values ...
  1 settings made for image
set atom 253 type 1
Setting atom values ...
  1 settings made for type
set atom 253 charge 2.0
Setting atom values ...
  1 settings made for charge
set atom 253 image 0 0 0
Setting atom values ...
  1 settings made for image
set atom 254 type 5
Setting atom values ...
  1 settings made for type
set atom 254 charge -2.0
Setting atom values ...
  1 settings made for charge
set atom 254 image 0 0 0
Setting atom values ...
  1 settings made for image
set atom 255 type 5
Setting atom values ...
  1 settings made for type
set atom 255 charge -2.0
Setting atom values ...
  1 settings made for charge
set atom 255 image 0 0 0
Setting atom values ...
  1 settings made for image
set atom 256 type 5
Setting atom values ...
  1 settings made for type
set atom 256 charge -2.0
Setting atom values ...
  1 settings made for charge
set atom 256 image 0 0 0
Setting atom values ...
  1 settings made for image
set atom 257 type 2
Setting atom values ...
  1 settings made for type
set atom 257 charge 4.0
Setting atom values ...
  1 settings made for charge
set atom 257 image 0 0 0
Setting atom values ...
  1 settings made for image
set atom 258 type 1
Setting atom values ...
  1 settings made for type
set atom 258 charge 2.0
Setting atom values ...
  1 settings made for charge
set atom 258 image 0 0 0
Setting atom values ...
  1 settings made for image
set atom 259 type 5
Setting atom values ...
  1 settings made for type
set atom 259 charge -2.0
Setting atom values ...
  1 settings made for charge
set atom 259 image 0 0 0
Setting atom values ...
  1 settings made for image
set atom 260 type 5
Setting atom values ...
  1 settings made for type
set atom 260 charge -2.0
Setting atom values ...
  1 settings made for charge
set atom 260 image 0 0 0
Setting atom values ...
  1 settings made for image
set atom 261 type 5
Setting atom values ...
  1 settings made for type
set atom 261 charge -2.0
Setting atom values ...
  1 settings made for charge
set atom 261 image 0 0 0
Setting atom values ...
  1 settings made for image
set atom 262 type 2
Setting atom values ...
  1 settings made for type
set atom 262 charge 4.0
Setting atom values ...
  1 settings made for charge
set atom 262 image 0 0 0
Setting atom values ...
  1 settings made for image
set atom 263 type 1
Setting atom values ...
  1 settings made for type
set atom 263 charge 2.0
Setting atom values ...
  1 settings made for charge
set atom 263 image 0 0 0
Setting atom values ...
  1 settings made for image
set atom 264 type 5
Setting atom values ...
  1 settings made for type
set atom 264 charge -2.0
Setting atom values ...
  1 settings made for charge
set atom 264 image 0 0 0
Setting atom values ...
  1 settings made for image
set atom 265 type 5
Setting atom values ...
  1 settings made for type
set atom 265 charge -2.0
Setting atom values ...
  1 settings made for charge
set atom 265 image 0 0 0
Setting atom values ...
  1 settings made for image
set atom 266 type 5
Setting atom values ...
  1 settings made for type
set atom 266 charge -2.0
Setting atom values ...
  1 settings made for charge
set atom 266 image 0 0 0
Setting atom values ...
  1 settings made for image
set atom 267 type 2
Setting atom values ...
  1 settings made for type
set atom 267 charge 4.0
Setting atom values ...
  1 settings made for charge
set atom 267 image 0 0 0
Setting atom values ...
  1 settings made for image
set atom 268 type 1
Setting atom values ...
  1 settings made for type
set atom 268 charge 2.0
Setting atom values ...
  1 settings made for charge
set atom 268 image 0 0 0
Setting atom values ...
  1 settings made for image
set atom 269 type 5
Setting atom values ...
  1 settings made for type
set atom 269 charge -2.0
Setting atom values ...
  1 settings made for charge
set atom 269 image 0 0 0
Setting atom values ...
  1 settings made for image
set atom 270 type 5
Setting atom values ...
  1 settings made for type
set atom 270 charge -2.0
Setting atom values ...
  1 settings made for charge
set atom 270 image 0 0 0
Setting atom values ...
  1 settings made for image
set atom 271 type 5
Setting atom values ...
  1 settings made for type
set atom 271 charge -2.0
Setting atom values ...
  1 settings made for charge
set atom 271 image 0 0 0
Setting atom values ...
  1 settings made for image
set atom 272 type 2
Setting atom values ...
  1 settings made for type
set atom 272 charge 4.0
Setting atom values ...
  1 settings made for charge
set atom 272 image 0 0 0
Setting atom values ...
  1 settings made for image
set atom 273 type 1
Setting atom values ...
  1 settings made for type
set atom 273 charge 2.0
Setting atom values ...
  1 settings made for charge
set atom 273 image 0 0 0
Setting atom values ...
  1 settings made for image
set atom 274 type 5
Setting atom values ...
  1 settings made for type
set atom 274 charge -2.0
Setting atom values ...
  1 settings made for charge
set atom 274 image 0 0 0
Setting atom values ...
  1 settings made for image
set atom 275 type 5
Setting atom values ...
  1 settings made for type
set atom 275 charge -2.0
Setting atom values ...
  1 settings made for charge
set atom 275 image 0 0 0
Setting atom values ...
  1 settings made for image
set atom 276 type 5
Setting atom values ...
  1 settings made for type
set atom 276 charge -2.0
Setting atom values ...
  1 settings made for charge
set atom 276 image 0 0 0
Setting atom values ...
  1 settings made for image
set atom 277 type 2
Setting atom values ...
  1 settings made for type
set atom 277 charge 4.0
Setting atom values ...
  1 settings made for charge
set atom 277 image 0 0 0
Setting atom values ...
  1 settings made for image
set atom 278 type 1
Setting atom values ...
  1 settings made for type
set atom 278 charge 2.0
Setting atom values ...
  1 settings made for charge
set atom 278 image 0 0 0
Setting atom values ...
  1 settings made for image
set atom 279 type 5
Setting atom values ...
  1 settings made for type
set atom 279 charge -2.0
Setting atom values ...
  1 settings made for charge
set atom 279 image 0 0 0
Setting atom values ...
  1 settings made for image
set atom 280 type 5
Setting atom values ...
  1 settings made for type
set atom 280 charge -2.0
Setting atom values ...
  1 settings made for charge
set atom 280 image 0 0 0
Setting atom values ...
  1 settings made for image
set atom 281 type 5
Setting atom values ...
  1 settings made for type
set atom 281 charge -2.0
Setting atom values ...
  1 settings made for charge
set atom 281 image 0 0 0
Setting atom values ...
  1 settings made for image
set atom 282 type 2
Setting atom values ...
  1 settings made for type
set atom 282 charge 4.0
Setting atom values ...
  1 settings made for charge
set atom 282 image 0 0 0
Setting atom values ...
  1 settings made for image
set atom 283 type 1
Setting atom values ...
  1 settings made for type
set atom 283 charge 2.0
Setting atom values ...
  1 settings made for charge
set atom 283 image 0 0 0
Setting atom values ...
  1 settings made for image
set atom 284 type 5
Setting atom values ...
  1 settings made for type
set atom 284 charge -2.0
Setting atom values ...
  1 settings made for charge
set atom 284 image 0 0 0
Setting atom values ...
  1 settings made for image
set atom 285 type 5
Setting atom values ...
  1 settings made for type
set atom 285 charge -2.0
Setting atom values ...
  1 settings made for charge
set atom 285 image 0 0 0
Setting atom values ...
  1 settings made for image
set atom 286 type 5
Setting atom values ...
  1 settings made for type
set atom 286 charge -2.0
Setting atom values ...
  1 settings made for charge
set atom 286 image 0 0 0
Setting atom values ...
  1 settings made for image
set atom 287 type 2
Setting atom values ...
  1 settings made for type
set atom 287 charge 4.0
Setting atom values ...
  1 settings made for charge
set atom 287 image 0 0 0
Setting atom values ...
  1 settings made for image
set atom 288 type 1
Setting atom values ...
  1 settings made for type
set atom 288 charge 2.0
Setting atom values ...
  1 settings made for charge
set atom 288 image 0 0 0
Setting atom values ...
  1 settings made for image
set atom 289 type 5
Setting atom values ...
  1 settings made for type
set atom 289 charge -2.0
Setting atom values ...
  1 settings made for charge
set atom 289 image 0 0 0
Setting atom values ...
  1 settings made for image
set atom 290 type 5
Setting atom values ...
  1 settings made for type
set atom 290 charge -2.0
Setting atom values ...
  1 settings made for charge
set atom 290 image 0 0 0
Setting atom values ...
  1 settings made for image
set atom 291 type 5
Setting atom values ...
  1 settings made for type
set atom 291 charge -2.0
Setting atom values ...
  1 settings made for charge
set atom 291 image 0 0 0
Setting atom values ...
  1 settings made for image
set atom 292 type 2
Setting atom values ...
  1 settings made for type
set atom 292 charge 4.0
Setting atom values ...
  1 settings made for charge
set atom 292 image 0 0 0
Setting atom values ...
  1 settings made for image
set atom 293 type 1
Setting atom values ...
  1 settings made for type
set atom 293 charge 2.0
Setting atom values ...
  1 settings made for charge
set atom 293 image 0 0 0
Setting atom values ...
  1 settings made for image
set atom 294 type 5
Setting atom values ...
  1 settings made for type
set atom 294 charge -2.0
Setting atom values ...
  1 settings made for charge
set atom 294 image 0 0 0
Setting atom values ...
  1 settings made for image
set atom 295 type 5
Setting atom values ...
  1 settings made for type
set atom 295 charge -2.0
Setting atom values ...
  1 settings made for charge
set atom 295 image 0 0 0
Setting atom values ...
  1 settings made for image
set atom 296 type 5
Setting atom values ...
  1 settings made for type
set atom 296 charge -2.0
Setting atom values ...
  1 settings made for charge
set atom 296 image 0 0 0
Setting atom values ...
  1 settings made for image
set atom 297 type 2
Setting atom values ...
  1 settings made for type
set atom 297 charge 4.0
Setting atom values ...
  1 settings made for charge
set atom 297 image 0 0 0
Setting atom values ...
  1 settings made for image
set atom 298 type 1
Setting atom values ...
  1 settings made for type
set atom 298 charge 2.0
Setting atom values ...
  1 settings made for charge
set atom 298 image 0 0 0
Setting atom values ...
  1 settings made for image
set atom 299 type 5
Setting atom values ...
  1 settings made for type
set atom 299 charge -2.0
Setting atom values ...
  1 settings made for charge
set atom 299 image 0 0 0
Setting atom values ...
  1 settings made for image
set atom 300 type 5
Setting atom values ...
  1 settings made for type
set atom 300 charge -2.0
Setting atom values ...
  1 settings made for charge
set atom 300 image 0 0 0
Setting atom values ...
  1 settings made for image
set atom 301 type 5
Setting atom values ...
  1 settings made for type
set atom 301 charge -2.0
Setting atom values ...
  1 settings made for charge
set atom 301 image 0 0 0
Setting atom values ...
  1 settings made for image
set atom 302 type 2
Setting atom values ...
  1 settings made for type
set atom 302 charge 4.0
Setting atom values ...
  1 settings made for charge
set atom 302 image 0 0 0
Setting atom values ...
  1 settings made for image
set atom 303 type 1
Setting atom values ...
  1 settings made for type
set atom 303 charge 2.0
Setting atom values ...
  1 settings made for charge
set atom 303 image 0 0 0
Setting atom values ...
  1 settings made for image
set atom 304 type 5
Setting atom values ...
  1 settings made for type
set atom 304 charge -2.0
Setting atom values ...
  1 settings made for charge
set atom 304 image 0 0 0
Setting atom values ...
  1 settings made for image
set atom 305 type 5
Setting atom values ...
  1 settings made for type
set atom 305 charge -2.0
Setting atom values ...
  1 settings made for charge
set atom 305 image 0 0 0
Setting atom values ...
  1 settings made for image
set atom 306 type 5
Setting atom values ...
  1 settings made for type
set atom 306 charge -2.0
Setting atom values ...
  1 settings made for charge
set atom 306 image 0 0 0
Setting atom values ...
  1 settings made for image
set atom 307 type 2
Setting atom values ...
  1 settings made for type
set atom 307 charge 4.0
Setting atom values ...
  1 settings made for charge
set atom 307 image 0 0 0
Setting atom values ...
  1 settings made for image
set atom 308 type 1
Setting atom values ...
  1 settings made for type
set atom 308 charge 2.0
Setting atom values ...
  1 settings made for charge
set atom 308 image 0 0 0
Setting atom values ...
  1 settings made for image
set atom 309 type 5
Setting atom values ...
  1 settings made for type
set atom 309 charge -2.0
Setting atom values ...
  1 settings made for charge
set atom 309 image 0 0 0
Setting atom values ...
  1 settings made for image
set atom 310 type 5
Setting atom values ...
  1 settings made for type
set atom 310 charge -2.0
Setting atom values ...
  1 settings made for charge
set atom 310 image 0 0 0
Setting atom values ...
  1 settings made for image
set atom 311 type 5
Setting atom values ...
  1 settings made for type
set atom 311 charge -2.0
Setting atom values ...
  1 settings made for charge
set atom 311 image 0 0 0
Setting atom values ...
  1 settings made for image
set atom 312 type 2
Setting atom values ...
  1 settings made for type
set atom 312 charge 4.0
Setting atom values ...
  1 settings made for charge
set atom 312 image 0 0 0
Setting atom values ...
  1 settings made for image
set atom 313 type 1
Setting atom values ...
  1 settings made for type
set atom 313 charge 2.0
Setting atom values ...
  1 settings made for charge
set atom 313 image 0 0 0
Setting atom values ...
  1 settings made for image
set atom 314 type 5
Setting atom values ...
  1 settings made for type
set atom 314 charge -2.0
Setting atom values ...
  1 settings made for charge
set atom 314 image 0 0 0
Setting atom values ...
  1 settings made for image
set atom 315 type 5
Setting atom values ...
  1 settings made for type
set atom 315 charge -2.0
Setting atom values ...
  1 settings made for charge
set atom 315 image 0 0 0
Setting atom values ...
  1 settings made for image
set atom 316 type 5
Setting atom values ...
  1 settings made for type
set atom 316 charge -2.0
Setting atom values ...
  1 settings made for charge
set atom 316 image 0 0 0
Setting atom values ...
  1 settings made for image
set atom 317 type 2
Setting atom values ...
  1 settings made for type
set atom 317 charge 4.0
Setting atom values ...
  1 settings made for charge
set atom 317 image 0 0 0
Setting atom values ...
  1 settings made for image
set atom 318 type 1
Setting atom values ...
  1 settings made for type
set atom 318 charge 2.0
Setting atom values ...
  1 settings made for charge
set atom 318 image 0 0 0
Setting atom values ...
  1 settings made for image
set atom 319 type 5
Setting atom values ...
  1 settings made for type
set atom 319 charge -2.0
Setting atom values ...
  1 settings made for charge
set atom 319 image 0 0 0
Setting atom values ...
  1 settings made for image
set atom 320 type 5
Setting atom values ...
  1 settings made for type
set atom 320 charge -2.0
Setting atom values ...
  1 settings made for charge
set atom 320 image 0 0 0
Setting atom values ...
  1 settings made for image
set atom 321 type 5
Setting atom values ...
  1 settings made for type
set atom 321 charge -2.0
Setting atom values ...
  1 settings made for charge
set atom 321 image 0 0 0
Setting atom values ...
  1 settings made for image
set atom 322 type 2
Setting atom values ...
  1 settings made for type
set atom 322 charge 4.0
Setting atom values ...
  1 settings made for charge
set atom 322 image 0 0 0
Setting atom values ...
  1 settings made for image
set atom 323 type 1
Setting atom values ...
  1 settings made for type
set atom 323 charge 2.0
Setting atom values ...
  1 settings made for charge
set atom 323 image 0 0 0
Setting atom values ...
  1 settings made for image
set atom 324 type 5
Setting atom values ...
  1 settings made for type
set atom 324 charge -2.0
Setting atom values ...
  1 settings made for charge
set atom 324 image 0 0 0
Setting atom values ...
  1 settings made for image
set atom 325 type 5
Setting atom values ...
  1 settings made for type
set atom 325 charge -2.0
Setting atom values ...
  1 settings made for charge
set atom 325 image 0 0 0
Setting atom values ...
  1 settings made for image
set atom 326 type 5
Setting atom values ...
  1 settings made for type
set atom 326 charge -2.0
Setting atom values ...
  1 settings made for charge
set atom 326 image 0 0 0
Setting atom values ...
  1 settings made for image
set atom 327 type 2
Setting atom values ...
  1 settings made for type
set atom 327 charge 4.0
Setting atom values ...
  1 settings made for charge
set atom 327 image 0 0 0
Setting atom values ...
  1 settings made for image
set atom 328 type 1
Setting atom values ...
  1 settings made for type
set atom 328 charge 2.0
Setting atom values ...
  1 settings made for charge
set atom 328 image 0 0 0
Setting atom values ...
  1 settings made for image
set atom 329 type 5
Setting atom values ...
  1 settings made for type
set atom 329 charge -2.0
Setting atom values ...
  1 settings made for charge
set atom 329 image 0 0 0
Setting atom values ...
  1 settings made for image
set atom 330 type 5
Setting atom values ...
  1 settings made for type
set atom 330 charge -2.0
Setting atom values ...
  1 settings made for charge
set atom 330 image 0 0 0
Setting atom values ...
  1 settings made for image
set atom 331 type 5
Setting atom values ...
  1 settings made for type
set atom 331 charge -2.0
Setting atom values ...
  1 settings made for charge
set atom 331 image 0 0 0
Setting atom values ...
  1 settings made for image
set atom 332 type 2
Setting atom values ...
  1 settings made for type
set atom 332 charge 4.0
Setting atom values ...
  1 settings made for charge
set atom 332 image 0 0 0
Setting atom values ...
  1 settings made for image
set atom 333 type 1
Setting atom values ...
  1 settings made for type
set atom 333 charge 2.0
Setting atom values ...
  1 settings made for charge
set atom 333 image 0 0 0
Setting atom values ...
  1 settings made for image
set atom 334 type 5
Setting atom values ...
  1 settings made for type
set atom 334 charge -2.0
Setting atom values ...
  1 settings made for charge
set atom 334 image 0 0 0
Setting atom values ...
  1 settings made for image
set atom 335 type 5
Setting atom values ...
  1 settings made for type
set atom 335 charge -2.0
Setting atom values ...
  1 settings made for charge
set atom 335 image 0 0 0
Setting atom values ...
  1 settings made for image
set atom 336 type 5
Setting atom values ...
  1 settings made for type
set atom 336 charge -2.0
Setting atom values ...
  1 settings made for charge
set atom 336 image 0 0 0
Setting atom values ...
  1 settings made for image
set atom 337 type 2
Setting atom values ...
  1 settings made for type
set atom 337 charge 4.0
Setting atom values ...
  1 settings made for charge
set atom 337 image 0 0 0
Setting atom values ...
  1 settings made for image
set atom 338 type 1
Setting atom values ...
  1 settings made for type
set atom 338 charge 2.0
Setting atom values ...
  1 settings made for charge
set atom 338 image 0 0 0
Setting atom values ...
  1 settings made for image
set atom 339 type 5
Setting atom values ...
  1 settings made for type
set atom 339 charge -2.0
Setting atom values ...
  1 settings made for charge
set atom 339 image 0 0 0
Setting atom values ...
  1 settings made for image
set atom 340 type 5
Setting atom values ...
  1 settings made for type
set atom 340 charge -2.0
Setting atom values ...
  1 settings made for charge
set atom 340 image 0 0 0
Setting atom values ...
  1 settings made for image
set atom 341 type 5
Setting atom values ...
  1 settings made for type
set atom 341 charge -2.0
Setting atom values ...
  1 settings made for charge
set atom 341 image 0 0 0
Setting atom values ...
  1 settings made for image
set atom 342 type 2
Setting atom values ...
  1 settings made for type
set atom 342 charge 4.0
Setting atom values ...
  1 settings made for charge
set atom 342 image 0 0 0
Setting atom values ...
  1 settings made for image
set atom 343 type 1
Setting atom values ...
  1 settings made for type
set atom 343 charge 2.0
Setting atom values ...
  1 settings made for charge
set atom 343 image 0 0 0
Setting atom values ...
  1 settings made for image
set atom 344 type 5
Setting atom values ...
  1 settings made for type
set atom 344 charge -2.0
Setting atom values ...
  1 settings made for charge
set atom 344 image 0 0 0
Setting atom values ...
  1 settings made for image
set atom 345 type 5
Setting atom values ...
  1 settings made for type
set atom 345 charge -2.0
Setting atom values ...
  1 settings made for charge
set atom 345 image 0 0 0
Setting atom values ...
  1 settings made for image
set atom 346 type 5
Setting atom values ...
  1 settings made for type
set atom 346 charge -2.0
Setting atom values ...
  1 settings made for charge
set atom 346 image 0 0 0
Setting atom values ...
  1 settings made for image
set atom 347 type 2
Setting atom values ...
  1 settings made for type
set atom 347 charge 4.0
Setting atom values ...
  1 settings made for charge
set atom 347 image 0 0 0
Setting atom values ...
  1 settings made for image
set atom 348 type 1
Setting atom values ...
  1 settings made for type
set atom 348 charge 2.0
Setting atom values ...
  1 settings made for charge
set atom 348 image 0 0 0
Setting atom values ...
  1 settings made for image
set atom 349 type 5
Setting atom values ...
  1 settings made for type
set atom 349 charge -2.0
Setting atom values ...
  1 settings made for charge
set atom 349 image 0 0 0
Setting atom values ...
  1 settings made for image
set atom 350 type 5
Setting atom values ...
  1 settings made for type
set atom 350 charge -2.0
Setting atom values ...
  1 settings made for charge
set atom 350 image 0 0 0
Setting atom values ...
  1 settings made for image
set atom 351 type 5
Setting atom values ...
  1 settings made for type
set atom 351 charge -2.0
Setting atom values ...
  1 settings made for charge
set atom 351 image 0 0 0
Setting atom values ...
  1 settings made for image
set atom 352 type 2
Setting atom values ...
  1 settings made for type
set atom 352 charge 4.0
Setting atom values ...
  1 settings made for charge
set atom 352 image 0 0 0
Setting atom values ...
  1 settings made for image
set atom 353 type 1
Setting atom values ...
  1 settings made for type
set atom 353 charge 2.0
Setting atom values ...
  1 settings made for charge
set atom 353 image 0 0 0
Setting atom values ...
  1 settings made for image
set atom 354 type 5
Setting atom values ...
  1 settings made for type
set atom 354 charge -2.0
Setting atom values ...
  1 settings made for charge
set atom 354 image 0 0 0
Setting atom values ...
  1 settings made for image
set atom 355 type 5
Setting atom values ...
  1 settings made for type
set atom 355 charge -2.0
Setting atom values ...
  1 settings made for charge
set atom 355 image 0 0 0
Setting atom values ...
  1 settings made for image
set atom 356 type 5
Setting atom values ...
  1 settings made for type
set atom 356 charge -2.0
Setting atom values ...
  1 settings made for charge
set atom 356 image 0 0 0
Setting atom values ...
  1 settings made for image
set atom 357 type 2
Setting atom values ...
  1 settings made for type
set atom 357 charge 4.0
Setting atom values ...
  1 settings made for charge
set atom 357 image 0 0 0
Setting atom values ...
  1 settings made for image
set atom 358 type 1
Setting atom values ...
  1 settings made for type
set atom 358 charge 2.0
Setting atom values ...
  1 settings made for charge
set atom 358 image 0 0 0
Setting atom values ...
  1 settings made for image
set atom 359 type 5
Setting atom values ...
  1 settings made for type
set atom 359 charge -2.0
Setting atom values ...
  1 settings made for charge
set atom 359 image 0 0 0
Setting atom values ...
  1 settings made for image
set atom 360 type 5
Setting atom values ...
  1 settings made for type
set atom 360 charge -2.0
Setting atom values ...
  1 settings made for charge
set atom 360 image 0 0 0
Setting atom values ...
  1 settings made for image
set atom 361 type 5
Setting atom values ...
  1 settings made for type
set atom 361 charge -2.0
Setting atom values ...
  1 settings made for charge
set atom 361 image 0 0 0
Setting atom values ...
  1 settings made for image
set atom 362 type 2
Setting atom values ...
  1 settings made for type
set atom 362 charge 4.0
Setting atom values ...
  1 settings made for charge
set atom 362 image 0 0 0
Setting atom values ...
  1 settings made for image
set atom 363 type 1
Setting atom values ...
  1 settings made for type
set atom 363 charge 2.0
Setting atom values ...
  1 settings made for charge
set atom 363 image 0 0 0
Setting atom values ...
  1 settings made for image
set atom 364 type 5
Setting atom values ...
  1 settings made for type
set atom 364 charge -2.0
Setting atom values ...
  1 settings made for charge
set atom 364 image 0 0 0
Setting atom values ...
  1 settings made for image
set atom 365 type 5
Setting atom values ...
  1 settings made for type
set atom 365 charge -2.0
Setting atom values ...
  1 settings made for charge
set atom 365 image 0 0 0
Setting atom values ...
  1 settings made for image
set atom 366 type 5
Setting atom values ...
  1 settings made for type
set atom 366 charge -2.0
Setting atom values ...
  1 settings made for charge
set atom 366 image 0 0 0
Setting atom values ...
  1 settings made for image
set atom 367 type 2
Setting atom values ...
  1 settings made for type
set atom 367 charge 4.0
Setting atom values ...
  1 settings made for charge
set atom 367 image 0 0 0
Setting atom values ...
  1 settings made for image
set atom 368 type 1
Setting atom values ...
  1 settings made for type
set atom 368 charge 2.0
Setting atom values ...
  1 settings made for charge
set atom 368 image 0 0 0
Setting atom values ...
  1 settings made for image
set atom 369 type 5
Setting atom values ...
  1 settings made for type
set atom 369 charge -2.0
Setting atom values ...
  1 settings made for charge
set atom 369 image 0 0 0
Setting atom values ...
  1 settings made for image
set atom 370 type 5
Setting atom values ...
  1 settings made for type
set atom 370 charge -2.0
Setting atom values ...
  1 settings made for charge
set atom 370 image 0 0 0
Setting atom values ...
  1 settings made for image
set atom 371 type 5
Setting atom values ...
  1 settings made for type
set atom 371 charge -2.0
Setting atom values ...
  1 settings made for charge
set atom 371 image 0 0 0
Setting atom values ...
  1 settings made for image
set atom 372 type 2
Setting atom values ...
  1 settings made for type
set atom 372 charge 4.0
Setting atom values ...
  1 settings made for charge
set atom 372 image 0 0 0
Setting atom values ...
  1 settings made for image
set atom 373 type 1
Setting atom values ...
  1 settings made for type
set atom 373 charge 2.0
Setting atom values ...
  1 settings made for charge
set atom 373 image 0 0 0
Setting atom values ...
  1 settings made for image
set atom 374 type 5
Setting atom values ...
  1 settings made for type
set atom 374 charge -2.0
Setting atom values ...
  1 settings made for charge
set atom 374 image 0 0 0
Setting atom values ...
  1 settings made for image
set atom 375 type 5
Setting atom values ...
  1 settings made for type
set atom 375 charge -2.0
Setting atom values ...
  1 settings made for charge
set atom 375 image 0 0 0
Setting atom values ...
  1 settings made for image
set atom 376 type 5
Setting atom values ...
  1 settings made for type
set atom 376 charge -2.0
Setting atom values ...
  1 settings made for charge
set atom 376 image 0 0 0
Setting atom values ...
  1 settings made for image
set atom 377 type 2
Setting atom values ...
  1 settings made for type
set atom 377 charge 4.0
Setting atom values ...
  1 settings made for charge
set atom 377 image 0 0 0
Setting atom values ...
  1 settings made for image
set atom 378 type 1
Setting atom values ...
  1 settings made for type
set atom 378 charge 2.0
Setting atom values ...
  1 settings made for charge
set atom 378 image 0 0 0
Setting atom values ...
  1 settings made for image
set atom 379 type 5
Setting atom values ...
  1 settings made for type
set atom 379 charge -2.0
Setting atom values ...
  1 settings made for charge
set atom 379 image 0 0 0
Setting atom values ...
  1 settings made for image
set atom 380 type 5
Setting atom values ...
  1 settings made for type
set atom 380 charge -2.0
Setting atom values ...
  1 settings made for charge
set atom 380 image 0 0 0
Setting atom values ...
  1 settings made for image
set atom 381 type 5
Setting atom values ...
  1 settings made for type
set atom 381 charge -2.0
Setting atom values ...
  1 settings made for charge
set atom 381 image 0 0 0
Setting atom values ...
  1 settings made for image
set atom 382 type 2
Setting atom values ...
  1 settings made for type
set atom 382 charge 4.0
Setting atom values ...
  1 settings made for charge
set atom 382 image 0 0 0
Setting atom values ...
  1 settings made for image
set atom 383 type 1
Setting atom values ...
  1 settings made for type
set atom 383 charge 2.0
Setting atom values ...
  1 settings made for charge
set atom 383 image 0 0 0
Setting atom values ...
  1 settings made for image
set atom 384 type 5
Setting atom values ...
  1 settings made for type
set atom 384 charge -2.0
Setting atom values ...
  1 settings made for charge
set atom 384 image 0 0 0
Setting atom values ...
  1 settings made for image
set atom 385 type 5
Setting atom values ...
  1 settings made for type
set atom 385 charge -2.0
Setting atom values ...
  1 settings made for charge
set atom 385 image 0 0 0
Setting atom values ...
  1 settings made for image
set atom 386 type 5
Setting atom values ...
  1 settings made for type
set atom 386 charge -2.0
Setting atom values ...
  1 settings made for charge
set atom 386 image 0 0 0
Setting atom values ...
  1 settings made for image
set atom 387 type 2
Setting atom values ...
  1 settings made for type
set atom 387 charge 4.0
Setting atom values ...
  1 settings made for charge
set atom 387 image 0 0 0
Setting atom values ...
  1 settings made for image
set atom 388 type 1
Setting atom values ...
  1 settings made for type
set atom 388 charge 2.0
Setting atom values ...
  1 settings made for charge
set atom 388 image 0 0 0
Setting atom values ...
  1 settings made for image
set atom 389 type 5
Setting atom values ...
  1 settings made for type
set atom 389 charge -2.0
Setting atom values ...
  1 settings made for charge
set atom 389 image 0 0 0
Setting atom values ...
  1 settings made for image
set atom 390 type 5
Setting atom values ...
  1 settings made for type
set atom 390 charge -2.0
Setting atom values ...
  1 settings made for charge
set atom 390 image 0 0 0
Setting atom values ...
  1 settings made for image
set atom 391 type 5
Setting atom values ...
  1 settings made for type
set atom 391 charge -2.0
Setting atom values ...
  1 settings made for charge
set atom 391 image 0 0 0
Setting atom values ...
  1 settings made for image
set atom 392 type 2
Setting atom values ...
  1 settings made for type
set atom 392 charge 4.0
Setting atom values ...
  1 settings made for charge
set atom 392 image 0 0 0
Setting atom values ...
  1 settings made for image
set atom 393 type 1
Setting atom values ...
  1 settings made for type
set atom 393 charge 2.0
Setting atom values ...
  1 settings made for charge
set atom 393 image 0 0 0
Setting atom values ...
  1 settings made for image
set atom 394 type 5
Setting atom values ...
  1 settings made for type
set atom 394 charge -2.0
Setting atom values ...
  1 settings made for charge
set atom 394 image 0 0 0
Setting atom values ...
  1 settings made for image
set atom 395 type 5
Setting atom values ...
  1 settings made for type
set atom 395 charge -2.0
Setting atom values ...
  1 settings made for charge
set atom 395 image 0 0 0
Setting atom values ...
  1 settings made for image
set atom 396 type 5
Setting atom values ...
  1 settings made for type
set atom 396 charge -2.0
Setting atom values ...
  1 settings made for charge
set atom 396 image 0 0 0
Setting atom values ...
  1 settings made for image
set atom 397 type 2
Setting atom values ...
  1 settings made for type
set atom 397 charge 4.0
Setting atom values ...
  1 settings made for charge
set atom 397 image 0 0 0
Setting atom values ...
  1 settings made for image
set atom 398 type 1
Setting atom values ...
  1 settings made for type
set atom 398 charge 2.0
Setting atom values ...
  1 settings made for charge
set atom 398 image 0 0 0
Setting atom values ...
  1 settings made for image
set atom 399 type 5
Setting atom values ...
  1 settings made for type
set atom 399 charge -2.0
Setting atom values ...
  1 settings made for charge
set atom 399 image 0 0 0
Setting atom values ...
  1 settings made for image
set atom 400 type 5
Setting atom values ...
  1 settings made for type
set atom 400 charge -2.0
Setting atom values ...
  1 settings made for charge
set atom 400 image 0 0 0
Setting atom values ...
  1 settings made for image
set atom 401 type 5
Setting atom values ...
  1 settings made for type
set atom 401 charge -2.0
Setting atom values ...
  1 settings made for charge
set atom 401 image 0 0 0
Setting atom values ...
  1 settings made for image
set atom 402 type 2
Setting atom values ...
  1 settings made for type
set atom 402 charge 4.0
Setting atom values ...
  1 settings made for charge
set atom 402 image 0 0 0
Setting atom values ...
  1 settings made for image
set atom 403 type 1
Setting atom values ...
  1 settings made for type
set atom 403 charge 2.0
Setting atom values ...
  1 settings made for charge
set atom 403 image 0 0 0
Setting atom values ...
  1 settings made for image
set atom 404 type 5
Setting atom values ...
  1 settings made for type
set atom 404 charge -2.0
Setting atom values ...
  1 settings made for charge
set atom 404 image 0 0 0
Setting atom values ...
  1 settings made for image
set atom 405 type 5
Setting atom values ...
  1 settings made for type
set atom 405 charge -2.0
Setting atom values ...
  1 settings made for charge
set atom 405 image 0 0 0
Setting atom values ...
  1 settings made for image
set atom 406 type 5
Setting atom values ...
  1 settings made for type
set atom 406 charge -2.0
Setting atom values ...
  1 settings made for charge
set atom 406 image 0 0 0
Setting atom values ...
  1 settings made for image
set atom 407 type 2
Setting atom values ...
  1 settings made for type
set atom 407 charge 4.0
Setting atom values ...
  1 settings made for charge
set atom 407 image 0 0 0
Setting atom values ...
  1 settings made for image
set atom 408 type 1
Setting atom values ...
  1 settings made for type
set atom 408 charge 2.0
Setting atom values ...
  1 settings made for charge
set atom 408 image 0 0 0
Setting atom values ...
  1 settings made for image
set atom 409 type 5
Setting atom values ...
  1 settings made for type
set atom 409 charge -2.0
Setting atom values ...
  1 settings made for charge
set atom 409 image 0 0 0
Setting atom values ...
  1 settings made for image
set atom 410 type 5
Setting atom values ...
  1 settings made for type
set atom 410 charge -2.0
Setting atom values ...
  1 settings made for charge
set atom 410 image 0 0 0
Setting atom values ...
  1 settings made for image
set atom 411 type 5
Setting atom values ...
  1 settings made for type
set atom 411 charge -2.0
Setting atom values ...
  1 settings made for charge
set atom 411 image 0 0 0
Setting atom values ...
  1 settings made for image
set atom 412 type 2
Setting atom values ...
  1 settings made for type
set atom 412 charge 4.0
Setting atom values ...
  1 settings made for charge
set atom 412 image 0 0 0
Setting atom values ...
  1 settings made for image
set atom 413 type 1
Setting atom values ...
  1 settings made for type
set atom 413 charge 2.0
Setting atom values ...
  1 settings made for charge
set atom 413 image 0 0 0
Setting atom values ...
  1 settings made for image
set atom 414 type 5
Setting atom values ...
  1 settings made for type
set atom 414 charge -2.0
Setting atom values ...
  1 settings made for charge
set atom 414 image 0 0 0
Setting atom values ...
  1 settings made for image
set atom 415 type 5
Setting atom values ...
  1 settings made for type
set atom 415 charge -2.0
Setting atom values ...
  1 settings made for charge
set atom 415 image 0 0 0
Setting atom values ...
  1 settings made for image
set atom 416 type 5
Setting atom values ...
  1 settings made for type
set atom 416 charge -2.0
Setting atom values ...
  1 settings made for charge
set atom 416 image 0 0 0
Setting atom values ...
  1 settings made for image
set atom 417 type 2
Setting atom values ...
  1 settings made for type
set atom 417 charge 4.0
Setting atom values ...
  1 settings made for charge
set atom 417 image 0 0 0
Setting atom values ...
  1 settings made for image
set atom 418 type 1
Setting atom values ...
  1 settings made for type
set atom 418 charge 2.0
Setting atom values ...
  1 settings made for charge
set atom 418 image 0 0 0
Setting atom values ...
  1 settings made for image
set atom 419 type 5
Setting atom values ...
  1 settings made for type
set atom 419 charge -2.0
Setting atom values ...
  1 settings made for charge
set atom 419 image 0 0 0
Setting atom values ...
  1 settings made for image
set atom 420 type 5
Setting atom values ...
  1 settings made for type
set atom 420 charge -2.0
Setting atom values ...
  1 settings made for charge
set atom 420 image 0 0 0
Setting atom values ...
  1 settings made for image
set atom 421 type 5
Setting atom values ...
  1 settings made for type
set atom 421 charge -2.0
Setting atom values ...
  1 settings made for charge
set atom 421 image 0 0 0
Setting atom values ...
  1 settings made for image
set atom 422 type 2
Setting atom values ...
  1 settings made for type
set atom 422 charge 4.0
Setting atom values ...
  1 settings made for charge
set atom 422 image 0 0 0
Setting atom values ...
  1 settings made for image
set atom 423 type 1
Setting atom values ...
  1 settings made for type
set atom 423 charge 2.0
Setting atom values ...
  1 settings made for charge
set atom 423 image 0 0 0
Setting atom values ...
  1 settings made for image
set atom 424 type 5
Setting atom values ...
  1 settings made for type
set atom 424 charge -2.0
Setting atom values ...
  1 settings made for charge
set atom 424 image 0 0 0
Setting atom values ...
  1 settings made for image
set atom 425 type 5
Setting atom values ...
  1 settings made for type
set atom 425 charge -2.0
Setting atom values ...
  1 settings made for charge
set atom 425 image 0 0 0
Setting atom values ...
  1 settings made for image
set atom 426 type 5
Setting atom values ...
  1 settings made for type
set atom 426 charge -2.0
Setting atom values ...
  1 settings made for charge
set atom 426 image 0 0 0
Setting atom values ...
  1 settings made for image
set atom 427 type 2
Setting atom values ...
  1 settings made for type
set atom 427 charge 4.0
Setting atom values ...
  1 settings made for charge
set atom 427 image 0 0 0
Setting atom values ...
  1 settings made for image
set atom 428 type 1
Setting atom values ...
  1 settings made for type
set atom 428 charge 2.0
Setting atom values ...
  1 settings made for charge
set atom 428 image 0 0 0
Setting atom values ...
  1 settings made for image
set atom 429 type 5
Setting atom values ...
  1 settings made for type
set atom 429 charge -2.0
Setting atom values ...
  1 settings made for charge
set atom 429 image 0 0 0
Setting atom values ...
  1 settings made for image
set atom 430 type 5
Setting atom values ...
  1 settings made for type
set atom 430 charge -2.0
Setting atom values ...
  1 settings made for charge
set atom 430 image 0 0 0
Setting atom values ...
  1 settings made for image
set atom 431 type 5
Setting atom values ...
  1 settings made for type
set atom 431 charge -2.0
Setting atom values ...
  1 settings made for charge
set atom 431 image 0 0 0
Setting atom values ...
  1 settings made for image
set atom 432 type 2
Setting atom values ...
  1 settings made for type
set atom 432 charge 4.0
Setting atom values ...
  1 settings made for charge
set atom 432 image 0 0 0
Setting atom values ...
  1 settings made for image
set atom 433 type 1
Setting atom values ...
  1 settings made for type
set atom 433 charge 2.0
Setting atom values ...
  1 settings made for charge
set atom 433 image 0 0 0
Setting atom values ...
  1 settings made for image
set atom 434 type 5
Setting atom values ...
  1 settings made for type
set atom 434 charge -2.0
Setting atom values ...
  1 settings made for charge
set atom 434 image 0 0 0
Setting atom values ...
  1 settings made for image
set atom 435 type 5
Setting atom values ...
  1 settings made for type
set atom 435 charge -2.0
Setting atom values ...
  1 settings made for charge
set atom 435 image 0 0 0
Setting atom values ...
  1 settings made for image
set atom 436 type 5
Setting atom values ...
  1 settings made for type
set atom 436 charge -2.0
Setting atom values ...
  1 settings made for charge
set atom 436 image 0 0 0
Setting atom values ...
  1 settings made for image
set atom 437 type 2
Setting atom values ...
  1 settings made for type
set atom 437 charge 4.0
Setting atom values ...
  1 settings made for charge
set atom 437 image 0 0 0
Setting atom values ...
  1 settings made for image
set atom 438 type 1
Setting atom values ...
  1 settings made for type
set atom 438 charge 2.0
Setting atom values ...
  1 settings made for charge
set atom 438 image 0 0 0
Setting atom values ...
  1 settings made for image
set atom 439 type 5
Setting atom values ...
  1 settings made for type
set atom 439 charge -2.0
Setting atom values ...
  1 settings made for charge
set atom 439 image 0 0 0
Setting atom values ...
  1 settings made for image
set atom 440 type 5
Setting atom values ...
  1 settings made for type
set atom 440 charge -2.0
Setting atom values ...
  1 settings made for charge
set atom 440 image 0 0 0
Setting atom values ...
  1 settings made for image
set atom 441 type 5
Setting atom values ...
  1 settings made for type
set atom 441 charge -2.0
Setting atom values ...
  1 settings made for charge
set atom 441 image 0 0 0
Setting atom values ...
  1 settings made for image
set atom 442 type 2
Setting atom values ...
  1 settings made for type
set atom 442 charge 4.0
Setting atom values ...
  1 settings made for charge
set atom 442 image 0 0 0
Setting atom values ...
  1 settings made for image
set atom 443 type 1
Setting atom values ...
  1 settings made for type
set atom 443 charge 2.0
Setting atom values ...
  1 settings made for charge
set atom 443 image 0 0 0
Setting atom values ...
  1 settings made for image
set atom 444 type 5
Setting atom values ...
  1 settings made for type
set atom 444 charge -2.0
Setting atom values ...
  1 settings made for charge
set atom 444 image 0 0 0
Setting atom values ...
  1 settings made for image
set atom 445 type 5
Setting atom values ...
  1 settings made for type
set atom 445 charge -2.0
Setting atom values ...
  1 settings made for charge
set atom 445 image 0 0 0
Setting atom values ...
  1 settings made for image
set atom 446 type 5
Setting atom values ...
  1 settings made for type
set atom 446 charge -2.0
Setting atom values ...
  1 settings made for charge
set atom 446 image 0 0 0
Setting atom values ...
  1 settings made for image
set atom 447 type 2
Setting atom values ...
  1 settings made for type
set atom 447 charge 4.0
Setting atom values ...
  1 settings made for charge
set atom 447 image 0 0 0
Setting atom values ...
  1 settings made for image
set atom 448 type 1
Setting atom values ...
  1 settings made for type
set atom 448 charge 2.0
Setting atom values ...
  1 settings made for charge
set atom 448 image 0 0 0
Setting atom values ...
  1 settings made for image
set atom 449 type 5
Setting atom values ...
  1 settings made for type
set atom 449 charge -2.0
Setting atom values ...
  1 settings made for charge
set atom 449 image 0 0 0
Setting atom values ...
  1 settings made for image
set atom 450 type 5
Setting atom values ...
  1 settings made for type
set atom 450 charge -2.0
Setting atom values ...
  1 settings made for charge
set atom 450 image 0 0 0
Setting atom values ...
  1 settings made for image
set atom 451 type 5
Setting atom values ...
  1 settings made for type
set atom 451 charge -2.0
Setting atom values ...
  1 settings made for charge
set atom 451 image 0 0 0
Setting atom values ...
  1 settings made for image
set atom 452 type 2
Setting atom values ...
  1 settings made for type
set atom 452 charge 4.0
Setting atom values ...
  1 settings made for charge
set atom 452 image 0 0 0
Setting atom values ...
  1 settings made for image
set atom 453 type 1
Setting atom values ...
  1 settings made for type
set atom 453 charge 2.0
Setting atom values ...
  1 settings made for charge
set atom 453 image 0 0 0
Setting atom values ...
  1 settings made for image
set atom 454 type 5
Setting atom values ...
  1 settings made for type
set atom 454 charge -2.0
Setting atom values ...
  1 settings made for charge
set atom 454 image 0 0 0
Setting atom values ...
  1 settings made for image
set atom 455 type 5
Setting atom values ...
  1 settings made for type
set atom 455 charge -2.0
Setting atom values ...
  1 settings made for charge
set atom 455 image 0 0 0
Setting atom values ...
  1 settings made for image
set atom 456 type 5
Setting atom values ...
  1 settings made for type
set atom 456 charge -2.0
Setting atom values ...
  1 settings made for charge
set atom 456 image 0 0 0
Setting atom values ...
  1 settings made for image
set atom 457 type 2
Setting atom values ...
  1 settings made for type
set atom 457 charge 4.0
Setting atom values ...
  1 settings made for charge
set atom 457 image 0 0 0
Setting atom values ...
  1 settings made for image
set atom 458 type 1
Setting atom values ...
  1 settings made for type
set atom 458 charge 2.0
Setting atom values ...
  1 settings made for charge
set atom 458 image 0 0 0
Setting atom values ...
  1 settings made for image
set atom 459 type 5
Setting atom values ...
  1 settings made for type
set atom 459 charge -2.0
Setting atom values ...
  1 settings made for charge
set atom 459 image 0 0 0
Setting atom values ...
  1 settings made for image
set atom 460 type 5
Setting atom values ...
  1 settings made for type
set atom 460 charge -2.0
Setting atom values ...
  1 settings made for charge
set atom 460 image 0 0 0
Setting atom values ...
  1 settings made for image
set atom 461 type 5
Setting atom values ...
  1 settings made for type
set atom 461 charge -2.0
Setting atom values ...
  1 settings made for charge
set atom 461 image 0 0 0
Setting atom values ...
  1 settings made for image
set atom 462 type 2
Setting atom values ...
  1 settings made for type
set atom 462 charge 4.0
Setting atom values ...
  1 settings made for charge
set atom 462 image 0 0 0
Setting atom values ...
  1 settings made for image
set atom 463 type 1
Setting atom values ...
  1 settings made for type
set atom 463 charge 2.0
Setting atom values ...
  1 settings made for charge
set atom 463 image 0 0 0
Setting atom values ...
  1 settings made for image
set atom 464 type 5
Setting atom values ...
  1 settings made for type
set atom 464 charge -2.0
Setting atom values ...
  1 settings made for charge
set atom 464 image 0 0 0
Setting atom values ...
  1 settings made for image
set atom 465 type 5
Setting atom values ...
  1 settings made for type
set atom 465 charge -2.0
Setting atom values ...
  1 settings made for charge
set atom 465 image 0 0 0
Setting atom values ...
  1 settings made for image
set atom 466 type 5
Setting atom values ...
  1 settings made for type
set atom 466 charge -2.0
Setting atom values ...
  1 settings made for charge
set atom 466 image 0 0 0
Setting atom values ...
  1 settings made for image
set atom 467 type 2
Setting atom values ...
  1 settings made for type
set atom 467 charge 4.0
Setting atom values ...
  1 settings made for charge
set atom 467 image 0 0 0
Setting atom values ...
  1 settings made for image
set atom 468 type 1
Setting atom values ...
  1 settings made for type
set atom 468 charge 2.0
Setting atom values ...
  1 settings made for charge
set atom 468 image 0 0 0
Setting atom values ...
  1 settings made for image
set atom 469 type 5
Setting atom values ...
  1 settings made for type
set atom 469 charge -2.0
Setting atom values ...
  1 settings made for charge
set atom 469 image 0 0 0
Setting atom values ...
  1 settings made for image
set atom 470 type 5
Setting atom values ...
  1 settings made for type
set atom 470 charge -2.0
Setting atom values ...
  1 settings made for charge
set atom 470 image 0 0 0
Setting atom values ...
  1 settings made for image
set atom 471 type 5
Setting atom values ...
  1 settings made for type
set atom 471 charge -2.0
Setting atom values ...
  1 settings made for charge
set atom 471 image 0 0 0
Setting atom values ...
  1 settings made for image
set atom 472 type 2
Setting atom values ...
  1 settings made for type
set atom 472 charge 4.0
Setting atom values ...
  1 settings made for charge
set atom 472 image 0 0 0
Setting atom values ...
  1 settings made for image
set atom 473 type 1
Setting atom values ...
  1 settings made for type
set atom 473 charge 2.0
Setting atom values ...
  1 settings made for charge
set atom 473 image 0 0 0
Setting atom values ...
  1 settings made for image
set atom 474 type 5
Setting atom values ...
  1 settings made for type
set atom 474 charge -2.0
Setting atom values ...
  1 settings made for charge
set atom 474 image 0 0 0
Setting atom values ...
  1 settings made for image
set atom 475 type 5
Setting atom values ...
  1 settings made for type
set atom 475 charge -2.0
Setting atom values ...
  1 settings made for charge
set atom 475 image 0 0 0
Setting atom values ...
  1 settings made for image
set atom 476 type 5
Setting atom values ...
  1 settings made for type
set atom 476 charge -2.0
Setting atom values ...
  1 settings made for charge
set atom 476 image 0 0 0
Setting atom values ...
  1 settings made for image
set atom 477 type 2
Setting atom values ...
  1 settings made for type
set atom 477 charge 4.0
Setting atom values ...
  1 settings made for charge
set atom 477 image 0 0 0
Setting atom values ...
  1 settings made for image
set atom 478 type 1
Setting atom values ...
  1 settings made for type
set atom 478 charge 2.0
Setting atom values ...
  1 settings made for charge
set atom 478 image 0 0 0
Setting atom values ...
  1 settings made for image
set atom 479 type 5
Setting atom values ...
  1 settings made for type
set atom 479 charge -2.0
Setting atom values ...
  1 settings made for charge
set atom 479 image 0 0 0
Setting atom values ...
  1 settings made for image
set atom 480 type 5
Setting atom values ...
  1 settings made for type
set atom 480 charge -2.0
Setting atom values ...
  1 settings made for charge
set atom 480 image 0 0 0
Setting atom values ...
  1 settings made for image
set atom 481 type 5
Setting atom values ...
  1 settings made for type
set atom 481 charge -2.0
Setting atom values ...
  1 settings made for charge
set atom 481 image 0 0 0
Setting atom values ...
  1 settings made for image
set atom 482 type 2
Setting atom values ...
  1 settings made for type
set atom 482 charge 4.0
Setting atom values ...
  1 settings made for charge
set atom 482 image 0 0 0
Setting atom values ...
  1 settings made for image
set atom 483 type 1
Setting atom values ...
  1 settings made for type
set atom 483 charge 2.0
Setting atom values ...
  1 settings made for charge
set atom 483 image 0 0 0
Setting atom values ...
  1 settings made for image
set atom 484 type 5
Setting atom values ...
  1 settings made for type
set atom 484 charge -2.0
Setting atom values ...
  1 settings made for charge
set atom 484 image 0 0 0
Setting atom values ...
  1 settings made for image
set atom 485 type 5
Setting atom values ...
  1 settings made for type
set atom 485 charge -2.0
Setting atom values ...
  1 settings made for charge
set atom 485 image 0 0 0
Setting atom values ...
  1 settings made for image
set atom 486 type 5
Setting atom values ...
  1 settings made for type
set atom 486 charge -2.0
Setting atom values ...
  1 settings made for charge
set atom 486 image 0 0 0
Setting atom values ...
  1 settings made for image
set atom 487 type 2
Setting atom values ...
  1 settings made for type
set atom 487 charge 4.0
Setting atom values ...
  1 settings made for charge
set atom 487 image 0 0 0
Setting atom values ...
  1 settings made for image
set atom 488 type 1
Setting atom values ...
  1 settings made for type
set atom 488 charge 2.0
Setting atom values ...
  1 settings made for charge
set atom 488 image 0 0 0
Setting atom values ...
  1 settings made for image
set atom 489 type 5
Setting atom values ...
  1 settings made for type
set atom 489 charge -2.0
Setting atom values ...
  1 settings made for charge
set atom 489 image 0 0 0
Setting atom values ...
  1 settings made for image
set atom 490 type 5
Setting atom values ...
  1 settings made for type
set atom 490 charge -2.0
Setting atom values ...
  1 settings made for charge
set atom 490 image 0 0 0
Setting atom values ...
  1 settings made for image
set atom 491 type 5
Setting atom values ...
  1 settings made for type
set atom 491 charge -2.0
Setting atom values ...
  1 settings made for charge
set atom 491 image 0 0 0
Setting atom values ...
  1 settings made for image
set atom 492 type 2
Setting atom values ...
  1 settings made for type
set atom 492 charge 4.0
Setting atom values ...
  1 settings made for charge
set atom 492 image 0 0 0
Setting atom values ...
  1 settings made for image
set atom 493 type 1
Setting atom values ...
  1 settings made for type
set atom 493 charge 2.0
Setting atom values ...
  1 settings made for charge
set atom 493 image 0 0 0
Setting atom values ...
  1 settings made for image
set atom 494 type 5
Setting atom values ...
  1 settings made for type
set atom 494 charge -2.0
Setting atom values ...
  1 settings made for charge
set atom 494 image 0 0 0
Setting atom values ...
  1 settings made for image
set atom 495 type 5
Setting atom values ...
  1 settings made for type
set atom 495 charge -2.0
Setting atom values ...
  1 settings made for charge
set atom 495 image 0 0 0
Setting atom values ...
  1 settings made for image
set atom 496 type 5
Setting atom values ...
  1 settings made for type
set atom 496 charge -2.0
Setting atom values ...
  1 settings made for charge
set atom 496 image 0 0 0
Setting atom values ...
  1 settings made for image
set atom 497 type 2
Setting atom values ...
  1 settings made for type
set atom 497 charge 4.0
Setting atom values ...
  1 settings made for charge
set atom 497 image 0 0 0
Setting atom values ...
  1 settings made for image
set atom 498 type 1
Setting atom values ...
  1 settings made for type
set atom 498 charge 2.0
Setting atom values ...
  1 settings made for charge
set atom 498 image 0 0 0
Setting atom values ...
  1 settings made for image
set atom 499 type 5
Setting atom values ...
  1 settings made for type
set atom 499 charge -2.0
Setting atom values ...
  1 settings made for charge
set atom 499 image 0 0 0
Setting atom values ...
  1 settings made for image
set atom 500 type 5
Setting atom values ...
  1 settings made for type
set atom 500 charge -2.0
Setting atom values ...
  1 settings made for charge
set atom 500 image 0 0 0
Setting atom values ...
  1 settings made for image
set atom 501 type 5
Setting atom values ...
  1 settings made for type
set atom 501 charge -2.0
Setting atom values ...
  1 settings made for charge
set atom 501 image 0 0 0
Setting atom values ...
  1 settings made for image
set atom 502 type 2
Setting atom values ...
  1 settings made for type
set atom 502 charge 4.0
Setting atom values ...
  1 settings made for charge
set atom 502 image 0 0 0
Setting atom values ...
  1 settings made for image
set atom 503 type 1
Setting atom values ...
  1 settings made for type
set atom 503 charge 2.0
Setting atom values ...
  1 settings made for charge
set atom 503 image 0 0 0
Setting atom values ...
  1 settings made for image
set atom 504 type 5
Setting atom values ...
  1 settings made for type
set atom 504 charge -2.0
Setting atom values ...
  1 settings made for charge
set atom 504 image 0 0 0
Setting atom values ...
  1 settings made for image
set atom 505 type 5
Setting atom values ...
  1 settings made for type
set atom 505 charge -2.0
Setting atom values ...
  1 settings made for charge
set atom 505 image 0 0 0
Setting atom values ...
  1 settings made for image
set atom 506 type 5
Setting atom values ...
  1 settings made for type
set atom 506 charge -2.0
Setting atom values ...
  1 settings made for charge
set atom 506 image 0 0 0
Setting atom values ...
  1 settings made for image
set atom 507 type 2
Setting atom values ...
  1 settings made for type
set atom 507 charge 4.0
Setting atom values ...
  1 settings made for charge
set atom 507 image 0 0 0
Setting atom values ...
  1 settings made for image
set atom 508 type 1
Setting atom values ...
  1 settings made for type
set atom 508 charge 2.0
Setting atom values ...
  1 settings made for charge
set atom 508 image 0 0 0
Setting atom values ...
  1 settings made for image
set atom 509 type 5
Setting atom values ...
  1 settings made for type
set atom 509 charge -2.0
Setting atom values ...
  1 settings made for charge
set atom 509 image 0 0 0
Setting atom values ...
  1 settings made for image
set atom 510 type 5
Setting atom values ...
  1 settings made for type
set atom 510 charge -2.0
Setting atom values ...
  1 settings made for charge
set atom 510 image 0 0 0
Setting atom values ...
  1 settings made for image
set atom 511 type 5
Setting atom values ...
  1 settings made for type
set atom 511 charge -2.0
Setting atom values ...
  1 settings made for charge
set atom 511 image 0 0 0
Setting atom values ...
  1 settings made for image
set atom 512 type 2
Setting atom values ...
  1 settings made for type
set atom 512 charge 4.0
Setting atom values ...
  1 settings made for charge
set atom 512 image 0 0 0
Setting atom values ...
  1 settings made for image
set atom 513 type 1
Setting atom values ...
  1 settings made for type
set atom 513 charge 2.0
Setting atom values ...
  1 settings made for charge
set atom 513 image 0 0 0
Setting atom values ...
  1 settings made for image
set atom 514 type 5
Setting atom values ...
  1 settings made for type
set atom 514 charge -2.0
Setting atom values ...
  1 settings made for charge
set atom 514 image 0 0 0
Setting atom values ...
  1 settings made for image
set atom 515 type 5
Setting atom values ...
  1 settings made for type
set atom 515 charge -2.0
Setting atom values ...
  1 settings made for charge
set atom 515 image 0 0 0
Setting atom values ...
  1 settings made for image
set atom 516 type 5
Setting atom values ...
  1 settings made for type
set atom 516 charge -2.0
Setting atom values ...
  1 settings made for charge
set atom 516 image 0 0 0
Setting atom values ...
  1 settings made for image
set atom 517 type 2
Setting atom values ...
  1 settings made for type
set atom 517 charge 4.0
Setting atom values ...
  1 settings made for charge
set atom 517 image 0 0 0
Setting atom values ...
  1 settings made for image
set atom 518 type 1
Setting atom values ...
  1 settings made for type
set atom 518 charge 2.0
Setting atom values ...
  1 settings made for charge
set atom 518 image 0 0 0
Setting atom values ...
  1 settings made for image
set atom 519 type 5
Setting atom values ...
  1 settings made for type
set atom 519 charge -2.0
Setting atom values ...
  1 settings made for charge
set atom 519 image 0 0 0
Setting atom values ...
  1 settings made for image
set atom 520 type 5
Setting atom values ...
  1 settings made for type
set atom 520 charge -2.0
Setting atom values ...
  1 settings made for charge
set atom 520 image 0 0 0
Setting atom values ...
  1 settings made for image
set atom 521 type 5
Setting atom values ...
  1 settings made for type
set atom 521 charge -2.0
Setting atom values ...
  1 settings made for charge
set atom 521 image 0 0 0
Setting atom values ...
  1 settings made for image
set atom 522 type 2
Setting atom values ...
  1 settings made for type
set atom 522 charge 4.0
Setting atom values ...
  1 settings made for charge
set atom 522 image 0 0 0
Setting atom values ...
  1 settings made for image
set atom 523 type 1
Setting atom values ...
  1 settings made for type
set atom 523 charge 2.0
Setting atom values ...
  1 settings made for charge
set atom 523 image 0 0 0
Setting atom values ...
  1 settings made for image
set atom 524 type 5
Setting atom values ...
  1 settings made for type
set atom 524 charge -2.0
Setting atom values ...
  1 settings made for charge
set atom 524 image 0 0 0
Setting atom values ...
  1 settings made for image
set atom 525 type 5
Setting atom values ...
  1 settings made for type
set atom 525 charge -2.0
Setting atom values ...
  1 settings made for charge
set atom 525 image 0 0 0
Setting atom values ...
  1 settings made for image
set atom 526 type 5
Setting atom values ...
  1 settings made for type
set atom 526 charge -2.0
Setting atom values ...
  1 settings made for charge
set atom 526 image 0 0 0
Setting atom values ...
  1 settings made for image
set atom 527 type 2
Setting atom values ...
  1 settings made for type
set atom 527 charge 4.0
Setting atom values ...
  1 settings made for charge
set atom 527 image 0 0 0
Setting atom values ...
  1 settings made for image
set atom 528 type 1
Setting atom values ...
  1 settings made for type
set atom 528 charge 2.0
Setting atom values ...
  1 settings made for charge
set atom 528 image 0 0 0
Setting atom values ...
  1 settings made for image
set atom 529 type 5
Setting atom values ...
  1 settings made for type
set atom 529 charge -2.0
Setting atom values ...
  1 settings made for charge
set atom 529 image 0 0 0
Setting atom values ...
  1 settings made for image
set atom 530 type 5
Setting atom values ...
  1 settings made for type
set atom 530 charge -2.0
Setting atom values ...
  1 settings made for charge
set atom 530 image 0 0 0
Setting atom values ...
  1 settings made for image
set atom 531 type 5
Setting atom values ...
  1 settings made for type
set atom 531 charge -2.0
Setting atom values ...
  1 settings made for charge
set atom 531 image 0 0 0
Setting atom values ...
  1 settings made for image
set atom 532 type 2
Setting atom values ...
  1 settings made for type
set atom 532 charge 4.0
Setting atom values ...
  1 settings made for charge
set atom 532 image 0 0 0
Setting atom values ...
  1 settings made for image
set atom 533 type 1
Setting atom values ...
  1 settings made for type
set atom 533 charge 2.0
Setting atom values ...
  1 settings made for charge
set atom 533 image 0 0 0
Setting atom values ...
  1 settings made for image
set atom 534 type 5
Setting atom values ...
  1 settings made for type
set atom 534 charge -2.0
Setting atom values ...
  1 settings made for charge
set atom 534 image 0 0 0
Setting atom values ...
  1 settings made for image
set atom 535 type 5
Setting atom values ...
  1 settings made for type
set atom 535 charge -2.0
Setting atom values ...
  1 settings made for charge
set atom 535 image 0 0 0
Setting atom values ...
  1 settings made for image
set atom 536 type 5
Setting atom values ...
  1 settings made for type
set atom 536 charge -2.0
Setting atom values ...
  1 settings made for charge
set atom 536 image 0 0 0
Setting atom values ...
  1 settings made for image
set atom 537 type 2
Setting atom values ...
  1 settings made for type
set atom 537 charge 4.0
Setting atom values ...
  1 settings made for charge
set atom 537 image 0 0 0
Setting atom values ...
  1 settings made for image
set atom 538 type 1
Setting atom values ...
  1 settings made for type
set atom 538 charge 2.0
Setting atom values ...
  1 settings made for charge
set atom 538 image 0 0 0
Setting atom values ...
  1 settings made for image
set atom 539 type 5
Setting atom values ...
  1 settings made for type
set atom 539 charge -2.0
Setting atom values ...
  1 settings made for charge
set atom 539 image 0 0 0
Setting atom values ...
  1 settings made for image
set atom 540 type 5
Setting atom values ...
  1 settings made for type
set atom 540 charge -2.0
Setting atom values ...
  1 settings made for charge
set atom 540 image 0 0 0
Setting atom values ...
  1 settings made for image
set atom 541 type 5
Setting atom values ...
  1 settings made for type
set atom 541 charge -2.0
Setting atom values ...
  1 settings made for charge
set atom 541 image 0 0 0
Setting atom values ...
  1 settings made for image
set atom 542 type 2
Setting atom values ...
  1 settings made for type
set atom 542 charge 4.0
Setting atom values ...
  1 settings made for charge
set atom 542 image 0 0 0
Setting atom values ...
  1 settings made for image
set atom 543 type 1
Setting atom values ...
  1 settings made for type
set atom 543 charge 2.0
Setting atom values ...
  1 settings made for charge
set atom 543 image 0 0 0
Setting atom values ...
  1 settings made for image
set atom 544 type 5
Setting atom values ...
  1 settings made for type
set atom 544 charge -2.0
Setting atom values ...
  1 settings made for charge
set atom 544 image 0 0 0
Setting atom values ...
  1 settings made for image
set atom 545 type 5
Setting atom values ...
  1 settings made for type
set atom 545 charge -2.0
Setting atom values ...
  1 settings made for charge
set atom 545 image 0 0 0
Setting atom values ...
  1 settings made for image
set atom 546 type 5
Setting atom values ...
  1 settings made for type
set atom 546 charge -2.0
Setting atom values ...
  1 settings made for charge
set atom 546 image 0 0 0
Setting atom values ...
  1 settings made for image
set atom 547 type 2
Setting atom values ...
  1 settings made for type
set atom 547 charge 4.0
Setting atom values ...
  1 settings made for charge
set atom 547 image 0 0 0
Setting atom values ...
  1 settings made for image
set atom 548 type 1
Setting atom values ...
  1 settings made for type
set atom 548 charge 2.0
Setting atom values ...
  1 settings made for charge
set atom 548 image 0 0 0
Setting atom values ...
  1 settings made for image
set atom 549 type 5
Setting atom values ...
  1 settings made for type
set atom 549 charge -2.0
Setting atom values ...
  1 settings made for charge
set atom 549 image 0 0 0
Setting atom values ...
  1 settings made for image
set atom 550 type 5
Setting atom values ...
  1 settings made for type
set atom 550 charge -2.0
Setting atom values ...
  1 settings made for charge
set atom 550 image 0 0 0
Setting atom values ...
  1 settings made for image
set atom 551 type 5
Setting atom values ...
  1 settings made for type
set atom 551 charge -2.0
Setting atom values ...
  1 settings made for charge
set atom 551 image 0 0 0
Setting atom values ...
  1 settings made for image
set atom 552 type 2
Setting atom values ...
  1 settings made for type
set atom 552 charge 4.0
Setting atom values ...
  1 settings made for charge
set atom 552 image 0 0 0
Setting atom values ...
  1 settings made for image
set atom 553 type 1
Setting atom values ...
  1 settings made for type
set atom 553 charge 2.0
Setting atom values ...
  1 settings made for charge
set atom 553 image 0 0 0
Setting atom values ...
  1 settings made for image
set atom 554 type 5
Setting atom values ...
  1 settings made for type
set atom 554 charge -2.0
Setting atom values ...
  1 settings made for charge
set atom 554 image 0 0 0
Setting atom values ...
  1 settings made for image
set atom 555 type 5
Setting atom values ...
  1 settings made for type
set atom 555 charge -2.0
Setting atom values ...
  1 settings made for charge
set atom 555 image 0 0 0
Setting atom values ...
  1 settings made for image
set atom 556 type 5
Setting atom values ...
  1 settings made for type
set atom 556 charge -2.0
Setting atom values ...
  1 settings made for charge
set atom 556 image 0 0 0
Setting atom values ...
  1 settings made for image
set atom 557 type 2
Setting atom values ...
  1 settings made for type
set atom 557 charge 4.0
Setting atom values ...
  1 settings made for charge
set atom 557 image 0 0 0
Setting atom values ...
  1 settings made for image
set atom 558 type 1
Setting atom values ...
  1 settings made for type
set atom 558 charge 2.0
Setting atom values ...
  1 settings made for charge
set atom 558 image 0 0 0
Setting atom values ...
  1 settings made for image
set atom 559 type 5
Setting atom values ...
  1 settings made for type
set atom 559 charge -2.0
Setting atom values ...
  1 settings made for charge
set atom 559 image 0 0 0
Setting atom values ...
  1 settings made for image
set atom 560 type 5
Setting atom values ...
  1 settings made for type
set atom 560 charge -2.0
Setting atom values ...
  1 settings made for charge
set atom 560 image 0 0 0
Setting atom values ...
  1 settings made for image
set atom 561 type 5
Setting atom values ...
  1 settings made for type
set atom 561 charge -2.0
Setting atom values ...
  1 settings made for charge
set atom 561 image 0 0 0
Setting atom values ...
  1 settings made for image
set atom 562 type 2
Setting atom values ...
  1 settings made for type
set atom 562 charge 4.0
Setting atom values ...
  1 settings made for charge
set atom 562 image 0 0 0
Setting atom values ...
  1 settings made for image
set atom 563 type 1
Setting atom values ...
  1 settings made for type
set atom 563 charge 2.0
Setting atom values ...
  1 settings made for charge
set atom 563 image 0 0 0
Setting atom values ...
  1 settings made for image
set atom 564 type 5
Setting atom values ...
  1 settings made for type
set atom 564 charge -2.0
Setting atom values ...
  1 settings made for charge
set atom 564 image 0 0 0
Setting atom values ...
  1 settings made for image
set atom 565 type 5
Setting atom values ...
  1 settings made for type
set atom 565 charge -2.0
Setting atom values ...
  1 settings made for charge
set atom 565 image 0 0 0
Setting atom values ...
  1 settings made for image
set atom 566 type 5
Setting atom values ...
  1 settings made for type
set atom 566 charge -2.0
Setting atom values ...
  1 settings made for charge
set atom 566 image 0 0 0
Setting atom values ...
  1 settings made for image
set atom 567 type 2
Setting atom values ...
  1 settings made for type
set atom 567 charge 4.0
Setting atom values ...
  1 settings made for charge
set atom 567 image 0 0 0
Setting atom values ...
  1 settings made for image
set atom 568 type 1
Setting atom values ...
  1 settings made for type
set atom 568 charge 2.0
Setting atom values ...
  1 settings made for charge
set atom 568 image 0 0 0
Setting atom values ...
  1 settings made for image
set atom 569 type 5
Setting atom values ...
  1 settings made for type
set atom 569 charge -2.0
Setting atom values ...
  1 settings made for charge
set atom 569 image 0 0 0
Setting atom values ...
  1 settings made for image
set atom 570 type 5
Setting atom values ...
  1 settings made for type
set atom 570 charge -2.0
Setting atom values ...
  1 settings made for charge
set atom 570 image 0 0 0
Setting atom values ...
  1 settings made for image
set atom 571 type 5
Setting atom values ...
  1 settings made for type
set atom 571 charge -2.0
Setting atom values ...
  1 settings made for charge
set atom 571 image 0 0 0
Setting atom values ...
  1 settings made for image
set atom 572 type 2
Setting atom values ...
  1 settings made for type
set atom 572 charge 4.0
Setting atom values ...
  1 settings made for charge
set atom 572 image 0 0 0
Setting atom values ...
  1 settings made for image
set atom 573 type 1
Setting atom values ...
  1 settings made for type
set atom 573 charge 2.0
Setting atom values ...
  1 settings made for charge
set atom 573 image 0 0 0
Setting atom values ...
  1 settings made for image
set atom 574 type 5
Setting atom values ...
  1 settings made for type
set atom 574 charge -2.0
Setting atom values ...
  1 settings made for charge
set atom 574 image 0 0 0
Setting atom values ...
  1 settings made for image
set atom 575 type 5
Setting atom values ...
  1 settings made for type
set atom 575 charge -2.0
Setting atom values ...
  1 settings made for charge
set atom 575 image 0 0 0
Setting atom values ...
  1 settings made for image
set atom 576 type 5
Setting atom values ...
  1 settings made for type
set atom 576 charge -2.0
Setting atom values ...
  1 settings made for charge
set atom 576 image 0 0 0
Setting atom values ...
  1 settings made for image
set atom 577 type 2
Setting atom values ...
  1 settings made for type
set atom 577 charge 4.0
Setting atom values ...
  1 settings made for charge
set atom 577 image 0 0 0
Setting atom values ...
  1 settings made for image
set atom 578 type 1
Setting atom values ...
  1 settings made for type
set atom 578 charge 2.0
Setting atom values ...
  1 settings made for charge
set atom 578 image 0 0 0
Setting atom values ...
  1 settings made for image
set atom 579 type 5
Setting atom values ...
  1 settings made for type
set atom 579 charge -2.0
Setting atom values ...
  1 settings made for charge
set atom 579 image 0 0 0
Setting atom values ...
  1 settings made for image
set atom 580 type 5
Setting atom values ...
  1 settings made for type
set atom 580 charge -2.0
Setting atom values ...
  1 settings made for charge
set atom 580 image 0 0 0
Setting atom values ...
  1 settings made for image
set atom 581 type 5
Setting atom values ...
  1 settings made for type
set atom 581 charge -2.0
Setting atom values ...
  1 settings made for charge
set atom 581 image 0 0 0
Setting atom values ...
  1 settings made for image
set atom 582 type 2
Setting atom values ...
  1 settings made for type
set atom 582 charge 4.0
Setting atom values ...
  1 settings made for charge
set atom 582 image 0 0 0
Setting atom values ...
  1 settings made for image
set atom 583 type 1
Setting atom values ...
  1 settings made for type
set atom 583 charge 2.0
Setting atom values ...
  1 settings made for charge
set atom 583 image 0 0 0
Setting atom values ...
  1 settings made for image
set atom 584 type 5
Setting atom values ...
  1 settings made for type
set atom 584 charge -2.0
Setting atom values ...
  1 settings made for charge
set atom 584 image 0 0 0
Setting atom values ...
  1 settings made for image
set atom 585 type 5
Setting atom values ...
  1 settings made for type
set atom 585 charge -2.0
Setting atom values ...
  1 settings made for charge
set atom 585 image 0 0 0
Setting atom values ...
  1 settings made for image
set atom 586 type 5
Setting atom values ...
  1 settings made for type
set atom 586 charge -2.0
Setting atom values ...
  1 settings made for charge
set atom 586 image 0 0 0
Setting atom values ...
  1 settings made for image
set atom 587 type 2
Setting atom values ...
  1 settings made for type
set atom 587 charge 4.0
Setting atom values ...
  1 settings made for charge
set atom 587 image 0 0 0
Setting atom values ...
  1 settings made for image
set atom 588 type 1
Setting atom values ...
  1 settings made for type
set atom 588 charge 2.0
Setting atom values ...
  1 settings made for charge
set atom 588 image 0 0 0
Setting atom values ...
  1 settings made for image
set atom 589 type 5
Setting atom values ...
  1 settings made for type
set atom 589 charge -2.0
Setting atom values ...
  1 settings made for charge
set atom 589 image 0 0 0
Setting atom values ...
  1 settings made for image
set atom 590 type 5
Setting atom values ...
  1 settings made for type
set atom 590 charge -2.0
Setting atom values ...
  1 settings made for charge
set atom 590 image 0 0 0
Setting atom values ...
  1 settings made for image
set atom 591 type 5
Setting atom values ...
  1 settings made for type
set atom 591 charge -2.0
Setting atom values ...
  1 settings made for charge
set atom 591 image 0 0 0
Setting atom values ...
  1 settings made for image
set atom 592 type 2
Setting atom values ...
  1 settings made for type
set atom 592 charge 4.0
Setting atom values ...
  1 settings made for charge
set atom 592 image 0 0 0
Setting atom values ...
  1 settings made for image
set atom 593 type 1
Setting atom values ...
  1 settings made for type
set atom 593 charge 2.0
Setting atom values ...
  1 settings made for charge
set atom 593 image 0 0 0
Setting atom values ...
  1 settings made for image
set atom 594 type 5
Setting atom values ...
  1 settings made for type
set atom 594 charge -2.0
Setting atom values ...
  1 settings made for charge
set atom 594 image 0 0 0
Setting atom values ...
  1 settings made for image
set atom 595 type 5
Setting atom values ...
  1 settings made for type
set atom 595 charge -2.0
Setting atom values ...
  1 settings made for charge
set atom 595 image 0 0 0
Setting atom values ...
  1 settings made for image
set atom 596 type 5
Setting atom values ...
  1 settings made for type
set atom 596 charge -2.0
Setting atom values ...
  1 settings made for charge
set atom 596 image 0 0 0
Setting atom values ...
  1 settings made for image
set atom 597 type 2
Setting atom values ...
  1 settings made for type
set atom 597 charge 4.0
Setting atom values ...
  1 settings made for charge
set atom 597 image 0 0 0
Setting atom values ...
  1 settings made for image
set atom 598 type 1
Setting atom values ...
  1 settings made for type
set atom 598 charge 2.0
Setting atom values ...
  1 settings made for charge
set atom 598 image 0 0 0
Setting atom values ...
  1 settings made for image
set atom 599 type 5
Setting atom values ...
  1 settings made for type
set atom 599 charge -2.0
Setting atom values ...
  1 settings made for charge
set atom 599 image 0 0 0
Setting atom values ...
  1 settings made for image
set atom 600 type 5
Setting atom values ...
  1 settings made for type
set atom 600 charge -2.0
Setting atom values ...
  1 settings made for charge
set atom 600 image 0 0 0
Setting atom values ...
  1 settings made for image
set atom 601 type 5
Setting atom values ...
  1 settings made for type
set atom 601 charge -2.0
Setting atom values ...
  1 settings made for charge
set atom 601 image 0 0 0
Setting atom values ...
  1 settings made for image
set atom 602 type 2
Setting atom values ...
  1 settings made for type
set atom 602 charge 4.0
Setting atom values ...
  1 settings made for charge
set atom 602 image 0 0 0
Setting atom values ...
  1 settings made for image
set atom 603 type 1
Setting atom values ...
  1 settings made for type
set atom 603 charge 2.0
Setting atom values ...
  1 settings made for charge
set atom 603 image 0 0 0
Setting atom values ...
  1 settings made for image
set atom 604 type 5
Setting atom values ...
  1 settings made for type
set atom 604 charge -2.0
Setting atom values ...
  1 settings made for charge
set atom 604 image 0 0 0
Setting atom values ...
  1 settings made for image
set atom 605 type 5
Setting atom values ...
  1 settings made for type
set atom 605 charge -2.0
Setting atom values ...
  1 settings made for charge
set atom 605 image 0 0 0
Setting atom values ...
  1 settings made for image
set atom 606 type 5
Setting atom values ...
  1 settings made for type
set atom 606 charge -2.0
Setting atom values ...
  1 settings made for charge
set atom 606 image 0 0 0
Setting atom values ...
  1 settings made for image
set atom 607 type 2
Setting atom values ...
  1 settings made for type
set atom 607 charge 4.0
Setting atom values ...
  1 settings made for charge
set atom 607 image 0 0 0
Setting atom values ...
  1 settings made for image
set atom 608 type 1
Setting atom values ...
  1 settings made for type
set atom 608 charge 2.0
Setting atom values ...
  1 settings made for charge
set atom 608 image 0 0 0
Setting atom values ...
  1 settings made for image
set atom 609 type 5
Setting atom values ...
  1 settings made for type
set atom 609 charge -2.0
Setting atom values ...
  1 settings made for charge
set atom 609 image 0 0 0
Setting atom values ...
  1 settings made for image
set atom 610 type 5
Setting atom values ...
  1 settings made for type
set atom 610 charge -2.0
Setting atom values ...
  1 settings made for charge
set atom 610 image 0 0 0
Setting atom values ...
  1 settings made for image
set atom 611 type 5
Setting atom values ...
  1 settings made for type
set atom 611 charge -2.0
Setting atom values ...
  1 settings made for charge
set atom 611 image 0 0 0
Setting atom values ...
  1 settings made for image
set atom 612 type 2
Setting atom values ...
  1 settings made for type
set atom 612 charge 4.0
Setting atom values ...
  1 settings made for charge
set atom 612 image 0 0 0
Setting atom values ...
  1 settings made for image
set atom 613 type 1
Setting atom values ...
  1 settings made for type
set atom 613 charge 2.0
Setting atom values ...
  1 settings made for charge
set atom 613 image 0 0 0
Setting atom values ...
  1 settings made for image
set atom 614 type 5
Setting atom values ...
  1 settings made for type
set atom 614 charge -2.0
Setting atom values ...
  1 settings made for charge
set atom 614 image 0 0 0
Setting atom values ...
  1 settings made for image
set atom 615 type 5
Setting atom values ...
  1 settings made for type
set atom 615 charge -2.0
Setting atom values ...
  1 settings made for charge
set atom 615 image 0 0 0
Setting atom values ...
  1 settings made for image
set atom 616 type 5
Setting atom values ...
  1 settings made for type
set atom 616 charge -2.0
Setting atom values ...
  1 settings made for charge
set atom 616 image 0 0 0
Setting atom values ...
  1 settings made for image
set atom 617 type 2
Setting atom values ...
  1 settings made for type
set atom 617 charge 4.0
Setting atom values ...
  1 settings made for charge
set atom 617 image 0 0 0
Setting atom values ...
  1 settings made for image
set atom 618 type 1
Setting atom values ...
  1 settings made for type
set atom 618 charge 2.0
Setting atom values ...
  1 settings made for charge
set atom 618 image 0 0 0
Setting atom values ...
  1 settings made for image
set atom 619 type 5
Setting atom values ...
  1 settings made for type
set atom 619 charge -2.0
Setting atom values ...
  1 settings made for charge
set atom 619 image 0 0 0
Setting atom values ...
  1 settings made for image
set atom 620 type 5
Setting atom values ...
  1 settings made for type
set atom 620 charge -2.0
Setting atom values ...
  1 settings made for charge
set atom 620 image 0 0 0
Setting atom values ...
  1 settings made for image
set atom 621 type 5
Setting atom values ...
  1 settings made for type
set atom 621 charge -2.0
Setting atom values ...
  1 settings made for charge
set atom 621 image 0 0 0
Setting atom values ...
  1 settings made for image
set atom 622 type 2
Setting atom values ...
  1 settings made for type
set atom 622 charge 4.0
Setting atom values ...
  1 settings made for charge
set atom 622 image 0 0 0
Setting atom values ...
  1 settings made for image
set atom 623 type 1
Setting atom values ...
  1 settings made for type
set atom 623 charge 2.0
Setting atom values ...
  1 settings made for charge
set atom 623 image 0 0 0
Setting atom values ...
  1 settings made for image
set atom 624 type 5
Setting atom values ...
  1 settings made for type
set atom 624 charge -2.0
Setting atom values ...
  1 settings made for charge
set atom 624 image 0 0 0
Setting atom values ...
  1 settings made for image
set atom 625 type 5
Setting atom values ...
  1 settings made for type
set atom 625 charge -2.0
Setting atom values ...
  1 settings made for charge
set atom 625 image 0 0 0
Setting atom values ...
  1 settings made for image
set atom 626 type 5
Setting atom values ...
  1 settings made for type
set atom 626 charge -2.0
Setting atom values ...
  1 settings made for charge
set atom 626 image 0 0 0
Setting atom values ...
  1 settings made for image
set atom 627 type 2
Setting atom values ...
  1 settings made for type
set atom 627 charge 4.0
Setting atom values ...
  1 settings made for charge
set atom 627 image 0 0 0
Setting atom values ...
  1 settings made for image
set atom 628 type 1
Setting atom values ...
  1 settings made for type
set atom 628 charge 2.0
Setting atom values ...
  1 settings made for charge
set atom 628 image 0 0 0
Setting atom values ...
  1 settings made for image
set atom 629 type 5
Setting atom values ...
  1 settings made for type
set atom 629 charge -2.0
Setting atom values ...
  1 settings made for charge
set atom 629 image 0 0 0
Setting atom values ...
  1 settings made for image
set atom 630 type 5
Setting atom values ...
  1 settings made for type
set atom 630 charge -2.0
Setting atom values ...
  1 settings made for charge
set atom 630 image 0 0 0
Setting atom values ...
  1 settings made for image
set atom 631 type 5
Setting atom values ...
  1 settings made for type
set atom 631 charge -2.0
Setting atom values ...
  1 settings made for charge
set atom 631 image 0 0 0
Setting atom values ...
  1 settings made for image
set atom 632 type 2
Setting atom values ...
  1 settings made for type
set atom 632 charge 4.0
Setting atom values ...
  1 settings made for charge
set atom 632 image 0 0 0
Setting atom values ...
  1 settings made for image
set atom 633 type 1
Setting atom values ...
  1 settings made for type
set atom 633 charge 2.0
Setting atom values ...
  1 settings made for charge
set atom 633 image 0 0 0
Setting atom values ...
  1 settings made for image
set atom 634 type 5
Setting atom values ...
  1 settings made for type
set atom 634 charge -2.0
Setting atom values ...
  1 settings made for charge
set atom 634 image 0 0 0
Setting atom values ...
  1 settings made for image
set atom 635 type 5
Setting atom values ...
  1 settings made for type
set atom 635 charge -2.0
Setting atom values ...
  1 settings made for charge
set atom 635 image 0 0 0
Setting atom values ...
  1 settings made for image
set atom 636 type 5
Setting atom values ...
  1 settings made for type
set atom 636 charge -2.0
Setting atom values ...
  1 settings made for charge
set atom 636 image 0 0 0
Setting atom values ...
  1 settings made for image
set atom 637 type 2
Setting atom values ...
  1 settings made for type
set atom 637 charge 4.0
Setting atom values ...
  1 settings made for charge
set atom 637 image 0 0 0
Setting atom values ...
  1 settings made for image
set atom 638 type 1
Setting atom values ...
  1 settings made for type
set atom 638 charge 2.0
Setting atom values ...
  1 settings made for charge
set atom 638 image 0 0 0
Setting atom values ...
  1 settings made for image
set atom 639 type 5
Setting atom values ...
  1 settings made for type
set atom 639 charge -2.0
Setting atom values ...
  1 settings made for charge
set atom 639 image 0 0 0
Setting atom values ...
  1 settings made for image
set atom 640 type 5
Setting atom values ...
  1 settings made for type
set atom 640 charge -2.0
Setting atom values ...
  1 settings made for charge
set atom 640 image 0 0 0
Setting atom values ...
  1 settings made for image
set atom 641 type 5
Setting atom values ...
  1 settings made for type
set atom 641 charge -2.0
Setting atom values ...
  1 settings made for charge
set atom 641 image 0 0 0
Setting atom values ...
  1 settings made for image
set atom 642 type 2
Setting atom values ...
  1 settings made for type
set atom 642 charge 4.0
Setting atom values ...
  1 settings made for charge
set atom 642 image 0 0 0
Setting atom values ...
  1 settings made for image
set atom 643 type 1
Setting atom values ...
  1 settings made for type
set atom 643 charge 2.0
Setting atom values ...
  1 settings made for charge
set atom 643 image 0 0 0
Setting atom values ...
  1 settings made for image
set atom 644 type 5
Setting atom values ...
  1 settings made for type
set atom 644 charge -2.0
Setting atom values ...
  1 settings made for charge
set atom 644 image 0 0 0
Setting atom values ...
  1 settings made for image
set atom 645 type 5
Setting atom values ...
  1 settings made for type
set atom 645 charge -2.0
Setting atom values ...
  1 settings made for charge
set atom 645 image 0 0 0
Setting atom values ...
  1 settings made for image
set atom 646 type 5
Setting atom values ...
  1 settings made for type
set atom 646 charge -2.0
Setting atom values ...
  1 settings made for charge
set atom 646 image 0 0 0
Setting atom values ...
  1 settings made for image
set atom 647 type 2
Setting atom values ...
  1 settings made for type
set atom 647 charge 4.0
Setting atom values ...
  1 settings made for charge
set atom 647 image 0 0 0
Setting atom values ...
  1 settings made for image
set atom 648 type 1
Setting atom values ...
  1 settings made for type
set atom 648 charge 2.0
Setting atom values ...
  1 settings made for charge
set atom 648 image 0 0 0
Setting atom values ...
  1 settings made for image
set atom 649 type 5
Setting atom values ...
  1 settings made for type
set atom 649 charge -2.0
Setting atom values ...
  1 settings made for charge
set atom 649 image 0 0 0
Setting atom values ...
  1 settings made for image
set atom 650 type 5
Setting atom values ...
  1 settings made for type
set atom 650 charge -2.0
Setting atom values ...
  1 settings made for charge
set atom 650 image 0 0 0
Setting atom values ...
  1 settings made for image
set atom 651 type 5
Setting atom values ...
  1 settings made for type
set atom 651 charge -2.0
Setting atom values ...
  1 settings made for charge
set atom 651 image 0 0 0
Setting atom values ...
  1 settings made for image
set atom 652 type 2
Setting atom values ...
  1 settings made for type
set atom 652 charge 4.0
Setting atom values ...
  1 settings made for charge
set atom 652 image 0 0 0
Setting atom values ...
  1 settings made for image
set atom 653 type 1
Setting atom values ...
  1 settings made for type
set atom 653 charge 2.0
Setting atom values ...
  1 settings made for charge
set atom 653 image 0 0 0
Setting atom values ...
  1 settings made for image
set atom 654 type 5
Setting atom values ...
  1 settings made for type
set atom 654 charge -2.0
Setting atom values ...
  1 settings made for charge
set atom 654 image 0 0 0
Setting atom values ...
  1 settings made for image
set atom 655 type 5
Setting atom values ...
  1 settings made for type
set atom 655 charge -2.0
Setting atom values ...
  1 settings made for charge
set atom 655 image 0 0 0
Setting atom values ...
  1 settings made for image
set atom 656 type 5
Setting atom values ...
  1 settings made for type
set atom 656 charge -2.0
Setting atom values ...
  1 settings made for charge
set atom 656 image 0 0 0
Setting atom values ...
  1 settings made for image
set atom 657 type 2
Setting atom values ...
  1 settings made for type
set atom 657 charge 4.0
Setting atom values ...
  1 settings made for charge
set atom 657 image 0 0 0
Setting atom values ...
  1 settings made for image
set atom 658 type 1
Setting atom values ...
  1 settings made for type
set atom 658 charge 2.0
Setting atom values ...
  1 settings made for charge
set atom 658 image 0 0 0
Setting atom values ...
  1 settings made for image
set atom 659 type 5
Setting atom values ...
  1 settings made for type
set atom 659 charge -2.0
Setting atom values ...
  1 settings made for charge
set atom 659 image 0 0 0
Setting atom values ...
  1 settings made for image
set atom 660 type 5
Setting atom values ...
  1 settings made for type
set atom 660 charge -2.0
Setting atom values ...
  1 settings made for charge
set atom 660 image 0 0 0
Setting atom values ...
  1 settings made for image
set atom 661 type 5
Setting atom values ...
  1 settings made for type
set atom 661 charge -2.0
Setting atom values ...
  1 settings made for charge
set atom 661 image 0 0 0
Setting atom values ...
  1 settings made for image
set atom 662 type 2
Setting atom values ...
  1 settings made for type
set atom 662 charge 4.0
Setting atom values ...
  1 settings made for charge
set atom 662 image 0 0 0
Setting atom values ...
  1 settings made for image
set atom 663 type 1
Setting atom values ...
  1 settings made for type
set atom 663 charge 2.0
Setting atom values ...
  1 settings made for charge
set atom 663 image 0 0 0
Setting atom values ...
  1 settings made for image
set atom 664 type 5
Setting atom values ...
  1 settings made for type
set atom 664 charge -2.0
Setting atom values ...
  1 settings made for charge
set atom 664 image 0 0 0
Setting atom values ...
  1 settings made for image
set atom 665 type 5
Setting atom values ...
  1 settings made for type
set atom 665 charge -2.0
Setting atom values ...
  1 settings made for charge
set atom 665 image 0 0 0
Setting atom values ...
  1 settings made for image
set atom 666 type 5
Setting atom values ...
  1 settings made for type
set atom 666 charge -2.0
Setting atom values ...
  1 settings made for charge
set atom 666 image 0 0 0
Setting atom values ...
  1 settings made for image
set atom 667 type 2
Setting atom values ...
  1 settings made for type
set atom 667 charge 4.0
Setting atom values ...
  1 settings made for charge
set atom 667 image 0 0 0
Setting atom values ...
  1 settings made for image
set atom 668 type 1
Setting atom values ...
  1 settings made for type
set atom 668 charge 2.0
Setting atom values ...
  1 settings made for charge
set atom 668 image 0 0 0
Setting atom values ...
  1 settings made for image
set atom 669 type 5
Setting atom values ...
  1 settings made for type
set atom 669 charge -2.0
Setting atom values ...
  1 settings made for charge
set atom 669 image 0 0 0
Setting atom values ...
  1 settings made for image
set atom 670 type 5
Setting atom values ...
  1 settings made for type
set atom 670 charge -2.0
Setting atom values ...
  1 settings made for charge
set atom 670 image 0 0 0
Setting atom values ...
  1 settings made for image
set atom 671 type 5
Setting atom values ...
  1 settings made for type
set atom 671 charge -2.0
Setting atom values ...
  1 settings made for charge
set atom 671 image 0 0 0
Setting atom values ...
  1 settings made for image
set atom 672 type 2
Setting atom values ...
  1 settings made for type
set atom 672 charge 4.0
Setting atom values ...
  1 settings made for charge
set atom 672 image 0 0 0
Setting atom values ...
  1 settings made for image
set atom 673 type 1
Setting atom values ...
  1 settings made for type
set atom 673 charge 2.0
Setting atom values ...
  1 settings made for charge
set atom 673 image 0 0 0
Setting atom values ...
  1 settings made for image
set atom 674 type 5
Setting atom values ...
  1 settings made for type
set atom 674 charge -2.0
Setting atom values ...
  1 settings made for charge
set atom 674 image 0 0 0
Setting atom values ...
  1 settings made for image
set atom 675 type 5
Setting atom values ...
  1 settings made for type
set atom 675 charge -2.0
Setting atom values ...
  1 settings made for charge
set atom 675 image 0 0 0
Setting atom values ...
  1 settings made for image
set atom 676 type 5
Setting atom values ...
  1 settings made for type
set atom 676 charge -2.0
Setting atom values ...
  1 settings made for charge
set atom 676 image 0 0 0
Setting atom values ...
  1 settings made for image
set atom 677 type 2
Setting atom values ...
  1 settings made for type
set atom 677 charge 4.0
Setting atom values ...
  1 settings made for charge
set atom 677 image 0 0 0
Setting atom values ...
  1 settings made for image
set atom 678 type 1
Setting atom values ...
  1 settings made for type
set atom 678 charge 2.0
Setting atom values ...
  1 settings made for charge
set atom 678 image 0 0 0
Setting atom values ...
  1 settings made for image
set atom 679 type 5
Setting atom values ...
  1 settings made for type
set atom 679 charge -2.0
Setting atom values ...
  1 settings made for charge
set atom 679 image 0 0 0
Setting atom values ...
  1 settings made for image
set atom 680 type 5
Setting atom values ...
  1 settings made for type
set atom 680 charge -2.0
Setting atom values ...
  1 settings made for charge
set atom 680 image 0 0 0
Setting atom values ...
  1 settings made for image
set atom 681 type 5
Setting atom values ...
  1 settings made for type
set atom 681 charge -2.0
Setting atom values ...
  1 settings made for charge
set atom 681 image 0 0 0
Setting atom values ...
  1 settings made for image
set atom 682 type 2
Setting atom values ...
  1 settings made for type
set atom 682 charge 4.0
Setting atom values ...
  1 settings made for charge
set atom 682 image 0 0 0
Setting atom values ...
  1 settings made for image
set atom 683 type 1
Setting atom values ...
  1 settings made for type
set atom 683 charge 2.0
Setting atom values ...
  1 settings made for charge
set atom 683 image 0 0 0
Setting atom values ...
  1 settings made for image
set atom 684 type 5
Setting atom values ...
  1 settings made for type
set atom 684 charge -2.0
Setting atom values ...
  1 settings made for charge
set atom 684 image 0 0 0
Setting atom values ...
  1 settings made for image
set atom 685 type 5
Setting atom values ...
  1 settings made for type
set atom 685 charge -2.0
Setting atom values ...
  1 settings made for charge
set atom 685 image 0 0 0
Setting atom values ...
  1 settings made for image
set atom 686 type 5
Setting atom values ...
  1 settings made for type
set atom 686 charge -2.0
Setting atom values ...
  1 settings made for charge
set atom 686 image 0 0 0
Setting atom values ...
  1 settings made for image
set atom 687 type 2
Setting atom values ...
  1 settings made for type
set atom 687 charge 4.0
Setting atom values ...
  1 settings made for charge
set atom 687 image 0 0 0
Setting atom values ...
  1 settings made for image
set atom 688 type 1
Setting atom values ...
  1 settings made for type
set atom 688 charge 2.0
Setting atom values ...
  1 settings made for charge
set atom 688 image 0 0 0
Setting atom values ...
  1 settings made for image
set atom 689 type 5
Setting atom values ...
  1 settings made for type
set atom 689 charge -2.0
Setting atom values ...
  1 settings made for charge
set atom 689 image 0 0 0
Setting atom values ...
  1 settings made for image
set atom 690 type 5
Setting atom values ...
  1 settings made for type
set atom 690 charge -2.0
Setting atom values ...
  1 settings made for charge
set atom 690 image 0 0 0
Setting atom values ...
  1 settings made for image
set atom 691 type 5
Setting atom values ...
  1 settings made for type
set atom 691 charge -2.0
Setting atom values ...
  1 settings made for charge
set atom 691 image 0 0 0
Setting atom values ...
  1 settings made for image
set atom 692 type 2
Setting atom values ...
  1 settings made for type
set atom 692 charge 4.0
Setting atom values ...
  1 settings made for charge
set atom 692 image 0 0 0
Setting atom values ...
  1 settings made for image
set atom 693 type 1
Setting atom values ...
  1 settings made for type
set atom 693 charge 2.0
Setting atom values ...
  1 settings made for charge
set atom 693 image 0 0 0
Setting atom values ...
  1 settings made for image
set atom 694 type 5
Setting atom values ...
  1 settings made for type
set atom 694 charge -2.0
Setting atom values ...
  1 settings made for charge
set atom 694 image 0 0 0
Setting atom values ...
  1 settings made for image
set atom 695 type 5
Setting atom values ...
  1 settings made for type
set atom 695 charge -2.0
Setting atom values ...
  1 settings made for charge
set atom 695 image 0 0 0
Setting atom values ...
  1 settings made for image
set atom 696 type 5
Setting atom values ...
  1 settings made for type
set atom 696 charge -2.0
Setting atom values ...
  1 settings made for charge
set atom 696 image 0 0 0
Setting atom values ...
  1 settings made for image
set atom 697 type 2
Setting atom values ...
  1 settings made for type
set atom 697 charge 4.0
Setting atom values ...
  1 settings made for charge
set atom 697 image 0 0 0
Setting atom values ...
  1 settings made for image
set atom 698 type 1
Setting atom values ...
  1 settings made for type
set atom 698 charge 2.0
Setting atom values ...
  1 settings made for charge
set atom 698 image 0 0 0
Setting atom values ...
  1 settings made for image
set atom 699 type 5
Setting atom values ...
  1 settings made for type
set atom 699 charge -2.0
Setting atom values ...
  1 settings made for charge
set atom 699 image 0 0 0
Setting atom values ...
  1 settings made for image
set atom 700 type 5
Setting atom values ...
  1 settings made for type
set atom 700 charge -2.0
Setting atom values ...
  1 settings made for charge
set atom 700 image 0 0 0
Setting atom values ...
  1 settings made for image
set atom 701 type 5
Setting atom values ...
  1 settings made for type
set atom 701 charge -2.0
Setting atom values ...
  1 settings made for charge
set atom 701 image 0 0 0
Setting atom values ...
  1 settings made for image
set atom 702 type 2
Setting atom values ...
  1 settings made for type
set atom 702 charge 4.0
Setting atom values ...
  1 settings made for charge
set atom 702 image 0 0 0
Setting atom values ...
  1 settings made for image
set atom 703 type 1
Setting atom values ...
  1 settings made for type
set atom 703 charge 2.0
Setting atom values ...
  1 settings made for charge
set atom 703 image 0 0 0
Setting atom values ...
  1 settings made for image
set atom 704 type 5
Setting atom values ...
  1 settings made for type
set atom 704 charge -2.0
Setting atom values ...
  1 settings made for charge
set atom 704 image 0 0 0
Setting atom values ...
  1 settings made for image
set atom 705 type 5
Setting atom values ...
  1 settings made for type
set atom 705 charge -2.0
Setting atom values ...
  1 settings made for charge
set atom 705 image 0 0 0
Setting atom values ...
  1 settings made for image
set atom 706 type 5
Setting atom values ...
  1 settings made for type
set atom 706 charge -2.0
Setting atom values ...
  1 settings made for charge
set atom 706 image 0 0 0
Setting atom values ...
  1 settings made for image
set atom 707 type 2
Setting atom values ...
  1 settings made for type
set atom 707 charge 4.0
Setting atom values ...
  1 settings made for charge
set atom 707 image 0 0 0
Setting atom values ...
  1 settings made for image
set atom 708 type 1
Setting atom values ...
  1 settings made for type
set atom 708 charge 2.0
Setting atom values ...
  1 settings made for charge
set atom 708 image 0 0 0
Setting atom values ...
  1 settings made for image
set atom 709 type 5
Setting atom values ...
  1 settings made for type
set atom 709 charge -2.0
Setting atom values ...
  1 settings made for charge
set atom 709 image 0 0 0
Setting atom values ...
  1 settings made for image
set atom 710 type 5
Setting atom values ...
  1 settings made for type
set atom 710 charge -2.0
Setting atom values ...
  1 settings made for charge
set atom 710 image 0 0 0
Setting atom values ...
  1 settings made for image
set atom 711 type 5
Setting atom values ...
  1 settings made for type
set atom 711 charge -2.0
Setting atom values ...
  1 settings made for charge
set atom 711 image 0 0 0
Setting atom values ...
  1 settings made for image
set atom 712 type 2
Setting atom values ...
  1 settings made for type
set atom 712 charge 4.0
Setting atom values ...
  1 settings made for charge
set atom 712 image 0 0 0
Setting atom values ...
  1 settings made for image
set atom 713 type 1
Setting atom values ...
  1 settings made for type
set atom 713 charge 2.0
Setting atom values ...
  1 settings made for charge
set atom 713 image 0 0 0
Setting atom values ...
  1 settings made for image
set atom 714 type 5
Setting atom values ...
  1 settings made for type
set atom 714 charge -2.0
Setting atom values ...
  1 settings made for charge
set atom 714 image 0 0 0
Setting atom values ...
  1 settings made for image
set atom 715 type 5
Setting atom values ...
  1 settings made for type
set atom 715 charge -2.0
Setting atom values ...
  1 settings made for charge
set atom 715 image 0 0 0
Setting atom values ...
  1 settings made for image
set atom 716 type 5
Setting atom values ...
  1 settings made for type
set atom 716 charge -2.0
Setting atom values ...
  1 settings made for charge
set atom 716 image 0 0 0
Setting atom values ...
  1 settings made for image
set atom 717 type 2
Setting atom values ...
  1 settings made for type
set atom 717 charge 4.0
Setting atom values ...
  1 settings made for charge
set atom 717 image 0 0 0
Setting atom values ...
  1 settings made for image
set atom 718 type 1
Setting atom values ...
  1 settings made for type
set atom 718 charge 2.0
Setting atom values ...
  1 settings made for charge
set atom 718 image 0 0 0
Setting atom values ...
  1 settings made for image
set atom 719 type 5
Setting atom values ...
  1 settings made for type
set atom 719 charge -2.0
Setting atom values ...
  1 settings made for charge
set atom 719 image 0 0 0
Setting atom values ...
  1 settings made for image
set atom 720 type 5
Setting atom values ...
  1 settings made for type
set atom 720 charge -2.0
Setting atom values ...
  1 settings made for charge
set atom 720 image 0 0 0
Setting atom values ...
  1 settings made for image
set atom 721 type 5
Setting atom values ...
  1 settings made for type
set atom 721 charge -2.0
Setting atom values ...
  1 settings made for charge
set atom 721 image 0 0 0
Setting atom values ...
  1 settings made for image
set atom 722 type 2
Setting atom values ...
  1 settings made for type
set atom 722 charge 4.0
Setting atom values ...
  1 settings made for charge
set atom 722 image 0 0 0
Setting atom values ...
  1 settings made for image
set atom 723 type 1
Setting atom values ...
  1 settings made for type
set atom 723 charge 2.0
Setting atom values ...
  1 settings made for charge
set atom 723 image 0 0 0
Setting atom values ...
  1 settings made for image
set atom 724 type 5
Setting atom values ...
  1 settings made for type
set atom 724 charge -2.0
Setting atom values ...
  1 settings made for charge
set atom 724 image 0 0 0
Setting atom values ...
  1 settings made for image
set atom 725 type 5
Setting atom values ...
  1 settings made for type
set atom 725 charge -2.0
Setting atom values ...
  1 settings made for charge
set atom 725 image 0 0 0
Setting atom values ...
  1 settings made for image
set atom 726 type 5
Setting atom values ...
  1 settings made for type
set atom 726 charge -2.0
Setting atom values ...
  1 settings made for charge
set atom 726 image 0 0 0
Setting atom values ...
  1 settings made for image
set atom 727 type 2
Setting atom values ...
  1 settings made for type
set atom 727 charge 4.0
Setting atom values ...
  1 settings made for charge
set atom 727 image 0 0 0
Setting atom values ...
  1 settings made for image
set atom 728 type 1
Setting atom values ...
  1 settings made for type
set atom 728 charge 2.0
Setting atom values ...
  1 settings made for charge
set atom 728 image 0 0 0
Setting atom values ...
  1 settings made for image
set atom 729 type 5
Setting atom values ...
  1 settings made for type
set atom 729 charge -2.0
Setting atom values ...
  1 settings made for charge
set atom 729 image 0 0 0
Setting atom values ...
  1 settings made for image
set atom 730 type 5
Setting atom values ...
  1 settings made for type
set atom 730 charge -2.0
Setting atom values ...
  1 settings made for charge
set atom 730 image 0 0 0
Setting atom values ...
  1 settings made for image
set atom 731 type 5
Setting atom values ...
  1 settings made for type
set atom 731 charge -2.0
Setting atom values ...
  1 settings made for charge
set atom 731 image 0 0 0
Setting atom values ...
  1 settings made for image
set atom 732 type 2
Setting atom values ...
  1 settings made for type
set atom 732 charge 4.0
Setting atom values ...
  1 settings made for charge
set atom 732 image 0 0 0
Setting atom values ...
  1 settings made for image
set atom 733 type 1
Setting atom values ...
  1 settings made for type
set atom 733 charge 2.0
Setting atom values ...
  1 settings made for charge
set atom 733 image 0 0 0
Setting atom values ...
  1 settings made for image
set atom 734 type 5
Setting atom values ...
  1 settings made for type
set atom 734 charge -2.0
Setting atom values ...
  1 settings made for charge
set atom 734 image 0 0 0
Setting atom values ...
  1 settings made for image
set atom 735 type 5
Setting atom values ...
  1 settings made for type
set atom 735 charge -2.0
Setting atom values ...
  1 settings made for charge
set atom 735 image 0 0 0
Setting atom values ...
  1 settings made for image
set atom 736 type 5
Setting atom values ...
  1 settings made for type
set atom 736 charge -2.0
Setting atom values ...
  1 settings made for charge
set atom 736 image 0 0 0
Setting atom values ...
  1 settings made for image
set atom 737 type 2
Setting atom values ...
  1 settings made for type
set atom 737 charge 4.0
Setting atom values ...
  1 settings made for charge
set atom 737 image 0 0 0
Setting atom values ...
  1 settings made for image
set atom 738 type 1
Setting atom values ...
  1 settings made for type
set atom 738 charge 2.0
Setting atom values ...
  1 settings made for charge
set atom 738 image 0 0 0
Setting atom values ...
  1 settings made for image
set atom 739 type 5
Setting atom values ...
  1 settings made for type
set atom 739 charge -2.0
Setting atom values ...
  1 settings made for charge
set atom 739 image 0 0 0
Setting atom values ...
  1 settings made for image
set atom 740 type 5
Setting atom values ...
  1 settings made for type
set atom 740 charge -2.0
Setting atom values ...
  1 settings made for charge
set atom 740 image 0 0 0
Setting atom values ...
  1 settings made for image
set atom 741 type 5
Setting atom values ...
  1 settings made for type
set atom 741 charge -2.0
Setting atom values ...
  1 settings made for charge
set atom 741 image 0 0 0
Setting atom values ...
  1 settings made for image
set atom 742 type 2
Setting atom values ...
  1 settings made for type
set atom 742 charge 4.0
Setting atom values ...
  1 settings made for charge
set atom 742 image 0 0 0
Setting atom values ...
  1 settings made for image
set atom 743 type 1
Setting atom values ...
  1 settings made for type
set atom 743 charge 2.0
Setting atom values ...
  1 settings made for charge
set atom 743 image 0 0 0
Setting atom values ...
  1 settings made for image
set atom 744 type 5
Setting atom values ...
  1 settings made for type
set atom 744 charge -2.0
Setting atom values ...
  1 settings made for charge
set atom 744 image 0 0 0
Setting atom values ...
  1 settings made for image
set atom 745 type 5
Setting atom values ...
  1 settings made for type
set atom 745 charge -2.0
Setting atom values ...
  1 settings made for charge
set atom 745 image 0 0 0
Setting atom values ...
  1 settings made for image
set atom 746 type 5
Setting atom values ...
  1 settings made for type
set atom 746 charge -2.0
Setting atom values ...
  1 settings made for charge
set atom 746 image 0 0 0
Setting atom values ...
  1 settings made for image
set atom 747 type 2
Setting atom values ...
  1 settings made for type
set atom 747 charge 4.0
Setting atom values ...
  1 settings made for charge
set atom 747 image 0 0 0
Setting atom values ...
  1 settings made for image
set atom 748 type 1
Setting atom values ...
  1 settings made for type
set atom 748 charge 2.0
Setting atom values ...
  1 settings made for charge
set atom 748 image 0 0 0
Setting atom values ...
  1 settings made for image
set atom 749 type 5
Setting atom values ...
  1 settings made for type
set atom 749 charge -2.0
Setting atom values ...
  1 settings made for charge
set atom 749 image 0 0 0
Setting atom values ...
  1 settings made for image
set atom 750 type 5
Setting atom values ...
  1 settings made for type
set atom 750 charge -2.0
Setting atom values ...
  1 settings made for charge
set atom 750 image 0 0 0
Setting atom values ...
  1 settings made for image
set atom 751 type 5
Setting atom values ...
  1 settings made for type
set atom 751 charge -2.0
Setting atom values ...
  1 settings made for charge
set atom 751 image 0 0 0
Setting atom values ...
  1 settings made for image
set atom 752 type 2
Setting atom values ...
  1 settings made for type
set atom 752 charge 4.0
Setting atom values ...
  1 settings made for charge
set atom 752 image 0 0 0
Setting atom values ...
  1 settings made for image
set atom 753 type 1
Setting atom values ...
  1 settings made for type
set atom 753 charge 2.0
Setting atom values ...
  1 settings made for charge
set atom 753 image 0 0 0
Setting atom values ...
  1 settings made for image
set atom 754 type 5
Setting atom values ...
  1 settings made for type
set atom 754 charge -2.0
Setting atom values ...
  1 settings made for charge
set atom 754 image 0 0 0
Setting atom values ...
  1 settings made for image
set atom 755 type 5
Setting atom values ...
  1 settings made for type
set atom 755 charge -2.0
Setting atom values ...
  1 settings made for charge
set atom 755 image 0 0 0
Setting atom values ...
  1 settings made for image
set atom 756 type 5
Setting atom values ...
  1 settings made for type
set atom 756 charge -2.0
Setting atom values ...
  1 settings made for charge
set atom 756 image 0 0 0
Setting atom values ...
  1 settings made for image
set atom 757 type 2
Setting atom values ...
  1 settings made for type
set atom 757 charge 4.0
Setting atom values ...
  1 settings made for charge
set atom 757 image 0 0 0
Setting atom values ...
  1 settings made for image
set atom 758 type 1
Setting atom values ...
  1 settings made for type
set atom 758 charge 2.0
Setting atom values ...
  1 settings made for charge
set atom 758 image 0 0 0
Setting atom values ...
  1 settings made for image
set atom 759 type 5
Setting atom values ...
  1 settings made for type
set atom 759 charge -2.0
Setting atom values ...
  1 settings made for charge
set atom 759 image 0 0 0
Setting atom values ...
  1 settings made for image
set atom 760 type 5
Setting atom values ...
  1 settings made for type
set atom 760 charge -2.0
Setting atom values ...
  1 settings made for charge
set atom 760 image 0 0 0
Setting atom values ...
  1 settings made for image
set atom 761 type 5
Setting atom values ...
  1 settings made for type
set atom 761 charge -2.0
Setting atom values ...
  1 settings made for charge
set atom 761 image 0 0 0
Setting atom values ...
  1 settings made for image
set atom 762 type 2
Setting atom values ...
  1 settings made for type
set atom 762 charge 4.0
Setting atom values ...
  1 settings made for charge
set atom 762 image 0 0 0
Setting atom values ...
  1 settings made for image
set atom 763 type 1
Setting atom values ...
  1 settings made for type
set atom 763 charge 2.0
Setting atom values ...
  1 settings made for charge
set atom 763 image 0 0 0
Setting atom values ...
  1 settings made for image
set atom 764 type 5
Setting atom values ...
  1 settings made for type
set atom 764 charge -2.0
Setting atom values ...
  1 settings made for charge
set atom 764 image 0 0 0
Setting atom values ...
  1 settings made for image
set atom 765 type 5
Setting atom values ...
  1 settings made for type
set atom 765 charge -2.0
Setting atom values ...
  1 settings made for charge
set atom 765 image 0 0 0
Setting atom values ...
  1 settings made for image
set atom 766 type 5
Setting atom values ...
  1 settings made for type
set atom 766 charge -2.0
Setting atom values ...
  1 settings made for charge
set atom 766 image 0 0 0
Setting atom values ...
  1 settings made for image
set atom 767 type 2
Setting atom values ...
  1 settings made for type
set atom 767 charge 4.0
Setting atom values ...
  1 settings made for charge
set atom 767 image 0 0 0
Setting atom values ...
  1 settings made for image
set atom 768 type 1
Setting atom values ...
  1 settings made for type
set atom 768 charge 2.0
Setting atom values ...
  1 settings made for charge
set atom 768 image 0 0 0
Setting atom values ...
  1 settings made for image
set atom 769 type 5
Setting atom values ...
  1 settings made for type
set atom 769 charge -2.0
Setting atom values ...
  1 settings made for charge
set atom 769 image 0 0 0
Setting atom values ...
  1 settings made for image
set atom 770 type 5
Setting atom values ...
  1 settings made for type
set atom 770 charge -2.0
Setting atom values ...
  1 settings made for charge
set atom 770 image 0 0 0
Setting atom values ...
  1 settings made for image
set atom 771 type 5
Setting atom values ...
  1 settings made for type
set atom 771 charge -2.0
Setting atom values ...
  1 settings made for charge
set atom 771 image 0 0 0
Setting atom values ...
  1 settings made for image
set atom 772 type 2
Setting atom values ...
  1 settings made for type
set atom 772 charge 4.0
Setting atom values ...
  1 settings made for charge
set atom 772 image 0 0 0
Setting atom values ...
  1 settings made for image
set atom 773 type 1
Setting atom values ...
  1 settings made for type
set atom 773 charge 2.0
Setting atom values ...
  1 settings made for charge
set atom 773 image 0 0 0
Setting atom values ...
  1 settings made for image
set atom 774 type 5
Setting atom values ...
  1 settings made for type
set atom 774 charge -2.0
Setting atom values ...
  1 settings made for charge
set atom 774 image 0 0 0
Setting atom values ...
  1 settings made for image
set atom 775 type 5
Setting atom values ...
  1 settings made for type
set atom 775 charge -2.0
Setting atom values ...
  1 settings made for charge
set atom 775 image 0 0 0
Setting atom values ...
  1 settings made for image
set atom 776 type 5
Setting atom values ...
  1 settings made for type
set atom 776 charge -2.0
Setting atom values ...
  1 settings made for charge
set atom 776 image 0 0 0
Setting atom values ...
  1 settings made for image
set atom 777 type 2
Setting atom values ...
  1 settings made for type
set atom 777 charge 4.0
Setting atom values ...
  1 settings made for charge
set atom 777 image 0 0 0
Setting atom values ...
  1 settings made for image
set atom 778 type 1
Setting atom values ...
  1 settings made for type
set atom 778 charge 2.0
Setting atom values ...
  1 settings made for charge
set atom 778 image 0 0 0
Setting atom values ...
  1 settings made for image
set atom 779 type 5
Setting atom values ...
  1 settings made for type
set atom 779 charge -2.0
Setting atom values ...
  1 settings made for charge
set atom 779 image 0 0 0
Setting atom values ...
  1 settings made for image
set atom 780 type 5
Setting atom values ...
  1 settings made for type
set atom 780 charge -2.0
Setting atom values ...
  1 settings made for charge
set atom 780 image 0 0 0
Setting atom values ...
  1 settings made for image
set atom 781 type 5
Setting atom values ...
  1 settings made for type
set atom 781 charge -2.0
Setting atom values ...
  1 settings made for charge
set atom 781 image 0 0 0
Setting atom values ...
  1 settings made for image
set atom 782 type 2
Setting atom values ...
  1 settings made for type
set atom 782 charge 4.0
Setting atom values ...
  1 settings made for charge
set atom 782 image 0 0 0
Setting atom values ...
  1 settings made for image
set atom 783 type 1
Setting atom values ...
  1 settings made for type
set atom 783 charge 2.0
Setting atom values ...
  1 settings made for charge
set atom 783 image 0 0 0
Setting atom values ...
  1 settings made for image
set atom 784 type 5
Setting atom values ...
  1 settings made for type
set atom 784 charge -2.0
Setting atom values ...
  1 settings made for charge
set atom 784 image 0 0 0
Setting atom values ...
  1 settings made for image
set atom 785 type 5
Setting atom values ...
  1 settings made for type
set atom 785 charge -2.0
Setting atom values ...
  1 settings made for charge
set atom 785 image 0 0 0
Setting atom values ...
  1 settings made for image
set atom 786 type 5
Setting atom values ...
  1 settings made for type
set atom 786 charge -2.0
Setting atom values ...
  1 settings made for charge
set atom 786 image 0 0 0
Setting atom values ...
  1 settings made for image
set atom 787 type 2
Setting atom values ...
  1 settings made for type
set atom 787 charge 4.0
Setting atom values ...
  1 settings made for charge
set atom 787 image 0 0 0
Setting atom values ...
  1 settings made for image
set atom 788 type 1
Setting atom values ...
  1 settings made for type
set atom 788 charge 2.0
Setting atom values ...
  1 settings made for charge
set atom 788 image 0 0 0
Setting atom values ...
  1 settings made for image
set atom 789 type 5
Setting atom values ...
  1 settings made for type
set atom 789 charge -2.0
Setting atom values ...
  1 settings made for charge
set atom 789 image 0 0 0
Setting atom values ...
  1 settings made for image
set atom 790 type 5
Setting atom values ...
  1 settings made for type
set atom 790 charge -2.0
Setting atom values ...
  1 settings made for charge
set atom 790 image 0 0 0
Setting atom values ...
  1 settings made for image
set atom 791 type 5
Setting atom values ...
  1 settings made for type
set atom 791 charge -2.0
Setting atom values ...
  1 settings made for charge
set atom 791 image 0 0 0
Setting atom values ...
  1 settings made for image
set atom 792 type 2
Setting atom values ...
  1 settings made for type
set atom 792 charge 4.0
Setting atom values ...
  1 settings made for charge
set atom 792 image 0 0 0
Setting atom values ...
  1 settings made for image
set atom 793 type 1
Setting atom values ...
  1 settings made for type
set atom 793 charge 2.0
Setting atom values ...
  1 settings made for charge
set atom 793 image 0 0 0
Setting atom values ...
  1 settings made for image
set atom 794 type 5
Setting atom values ...
  1 settings made for type
set atom 794 charge -2.0
Setting atom values ...
  1 settings made for charge
set atom 794 image 0 0 0
Setting atom values ...
  1 settings made for image
set atom 795 type 5
Setting atom values ...
  1 settings made for type
set atom 795 charge -2.0
Setting atom values ...
  1 settings made for charge
set atom 795 image 0 0 0
Setting atom values ...
  1 settings made for image
set atom 796 type 5
Setting atom values ...
  1 settings made for type
set atom 796 charge -2.0
Setting atom values ...
  1 settings made for charge
set atom 796 image 0 0 0
Setting atom values ...
  1 settings made for image
set atom 797 type 2
Setting atom values ...
  1 settings made for type
set atom 797 charge 4.0
Setting atom values ...
  1 settings made for charge
set atom 797 image 0 0 0
Setting atom values ...
  1 settings made for image
set atom 798 type 1
Setting atom values ...
  1 settings made for type
set atom 798 charge 2.0
Setting atom values ...
  1 settings made for charge
set atom 798 image 0 0 0
Setting atom values ...
  1 settings made for image
set atom 799 type 5
Setting atom values ...
  1 settings made for type
set atom 799 charge -2.0
Setting atom values ...
  1 settings made for charge
set atom 799 image 0 0 0
Setting atom values ...
  1 settings made for image
set atom 800 type 5
Setting atom values ...
  1 settings made for type
set atom 800 charge -2.0
Setting atom values ...
  1 settings made for charge
set atom 800 image 0 0 0
Setting atom values ...
  1 settings made for image
set atom 801 type 5
Setting atom values ...
  1 settings made for type
set atom 801 charge -2.0
Setting atom values ...
  1 settings made for charge
set atom 801 image 0 0 0
Setting atom values ...
  1 settings made for image
set atom 802 type 2
Setting atom values ...
  1 settings made for type
set atom 802 charge 4.0
Setting atom values ...
  1 settings made for charge
set atom 802 image 0 0 0
Setting atom values ...
  1 settings made for image
set atom 803 type 1
Setting atom values ...
  1 settings made for type
set atom 803 charge 2.0
Setting atom values ...
  1 settings made for charge
set atom 803 image 0 0 0
Setting atom values ...
  1 settings made for image
set atom 804 type 5
Setting atom values ...
  1 settings made for type
set atom 804 charge -2.0
Setting atom values ...
  1 settings made for charge
set atom 804 image 0 0 0
Setting atom values ...
  1 settings made for image
set atom 805 type 5
Setting atom values ...
  1 settings made for type
set atom 805 charge -2.0
Setting atom values ...
  1 settings made for charge
set atom 805 image 0 0 0
Setting atom values ...
  1 settings made for image
set atom 806 type 5
Setting atom values ...
  1 settings made for type
set atom 806 charge -2.0
Setting atom values ...
  1 settings made for charge
set atom 806 image 0 0 0
Setting atom values ...
  1 settings made for image
set atom 807 type 2
Setting atom values ...
  1 settings made for type
set atom 807 charge 4.0
Setting atom values ...
  1 settings made for charge
set atom 807 image 0 0 0
Setting atom values ...
  1 settings made for image
set atom 808 type 1
Setting atom values ...
  1 settings made for type
set atom 808 charge 2.0
Setting atom values ...
  1 settings made for charge
set atom 808 image 0 0 0
Setting atom values ...
  1 settings made for image
set atom 809 type 5
Setting atom values ...
  1 settings made for type
set atom 809 charge -2.0
Setting atom values ...
  1 settings made for charge
set atom 809 image 0 0 0
Setting atom values ...
  1 settings made for image
set atom 810 type 5
Setting atom values ...
  1 settings made for type
set atom 810 charge -2.0
Setting atom values ...
  1 settings made for charge
set atom 810 image 0 0 0
Setting atom values ...
  1 settings made for image
set atom 811 type 5
Setting atom values ...
  1 settings made for type
set atom 811 charge -2.0
Setting atom values ...
  1 settings made for charge
set atom 811 image 0 0 0
Setting atom values ...
  1 settings made for image
set atom 812 type 2
Setting atom values ...
  1 settings made for type
set atom 812 charge 4.0
Setting atom values ...
  1 settings made for charge
set atom 812 image 0 0 0
Setting atom values ...
  1 settings made for image
set atom 813 type 1
Setting atom values ...
  1 settings made for type
set atom 813 charge 2.0
Setting atom values ...
  1 settings made for charge
set atom 813 image 0 0 0
Setting atom values ...
  1 settings made for image
set atom 814 type 5
Setting atom values ...
  1 settings made for type
set atom 814 charge -2.0
Setting atom values ...
  1 settings made for charge
set atom 814 image 0 0 0
Setting atom values ...
  1 settings made for image
set atom 815 type 5
Setting atom values ...
  1 settings made for type
set atom 815 charge -2.0
Setting atom values ...
  1 settings made for charge
set atom 815 image 0 0 0
Setting atom values ...
  1 settings made for image
set atom 816 type 5
Setting atom values ...
  1 settings made for type
set atom 816 charge -2.0
Setting atom values ...
  1 settings made for charge
set atom 816 image 0 0 0
Setting atom values ...
  1 settings made for image
set atom 817 type 2
Setting atom values ...
  1 settings made for type
set atom 817 charge 4.0
Setting atom values ...
  1 settings made for charge
set atom 817 image 0 0 0
Setting atom values ...
  1 settings made for image
set atom 818 type 1
Setting atom values ...
  1 settings made for type
set atom 818 charge 2.0
Setting atom values ...
  1 settings made for charge
set atom 818 image 0 0 0
Setting atom values ...
  1 settings made for image
set atom 819 type 5
Setting atom values ...
  1 settings made for type
set atom 819 charge -2.0
Setting atom values ...
  1 settings made for charge
set atom 819 image 0 0 0
Setting atom values ...
  1 settings made for image
set atom 820 type 5
Setting atom values ...
  1 settings made for type
set atom 820 charge -2.0
Setting atom values ...
  1 settings made for charge
set atom 820 image 0 0 0
Setting atom values ...
  1 settings made for image
set atom 821 type 5
Setting atom values ...
  1 settings made for type
set atom 821 charge -2.0
Setting atom values ...
  1 settings made for charge
set atom 821 image 0 0 0
Setting atom values ...
  1 settings made for image
set atom 822 type 2
Setting atom values ...
  1 settings made for type
set atom 822 charge 4.0
Setting atom values ...
  1 settings made for charge
set atom 822 image 0 0 0
Setting atom values ...
  1 settings made for image
set atom 823 type 1
Setting atom values ...
  1 settings made for type
set atom 823 charge 2.0
Setting atom values ...
  1 settings made for charge
set atom 823 image 0 0 0
Setting atom values ...
  1 settings made for image
set atom 824 type 5
Setting atom values ...
  1 settings made for type
set atom 824 charge -2.0
Setting atom values ...
  1 settings made for charge
set atom 824 image 0 0 0
Setting atom values ...
  1 settings made for image
set atom 825 type 5
Setting atom values ...
  1 settings made for type
set atom 825 charge -2.0
Setting atom values ...
  1 settings made for charge
set atom 825 image 0 0 0
Setting atom values ...
  1 settings made for image
set atom 826 type 5
Setting atom values ...
  1 settings made for type
set atom 826 charge -2.0
Setting atom values ...
  1 settings made for charge
set atom 826 image 0 0 0
Setting atom values ...
  1 settings made for image
set atom 827 type 2
Setting atom values ...
  1 settings made for type
set atom 827 charge 4.0
Setting atom values ...
  1 settings made for charge
set atom 827 image 0 0 0
Setting atom values ...
  1 settings made for image
set atom 828 type 1
Setting atom values ...
  1 settings made for type
set atom 828 charge 2.0
Setting atom values ...
  1 settings made for charge
set atom 828 image 0 0 0
Setting atom values ...
  1 settings made for image
set atom 829 type 5
Setting atom values ...
  1 settings made for type
set atom 829 charge -2.0
Setting atom values ...
  1 settings made for charge
set atom 829 image 0 0 0
Setting atom values ...
  1 settings made for image
set atom 830 type 5
Setting atom values ...
  1 settings made for type
set atom 830 charge -2.0
Setting atom values ...
  1 settings made for charge
set atom 830 image 0 0 0
Setting atom values ...
  1 settings made for image
set atom 831 type 5
Setting atom values ...
  1 settings made for type
set atom 831 charge -2.0
Setting atom values ...
  1 settings made for charge
set atom 831 image 0 0 0
Setting atom values ...
  1 settings made for image
set atom 832 type 2
Setting atom values ...
  1 settings made for type
set atom 832 charge 4.0
Setting atom values ...
  1 settings made for charge
set atom 832 image 0 0 0
Setting atom values ...
  1 settings made for image
set atom 833 type 1
Setting atom values ...
  1 settings made for type
set atom 833 charge 2.0
Setting atom values ...
  1 settings made for charge
set atom 833 image 0 0 0
Setting atom values ...
  1 settings made for image
set atom 834 type 5
Setting atom values ...
  1 settings made for type
set atom 834 charge -2.0
Setting atom values ...
  1 settings made for charge
set atom 834 image 0 0 0
Setting atom values ...
  1 settings made for image
set atom 835 type 5
Setting atom values ...
  1 settings made for type
set atom 835 charge -2.0
Setting atom values ...
  1 settings made for charge
set atom 835 image 0 0 0
Setting atom values ...
  1 settings made for image
set atom 836 type 5
Setting atom values ...
  1 settings made for type
set atom 836 charge -2.0
Setting atom values ...
  1 settings made for charge
set atom 836 image 0 0 0
Setting atom values ...
  1 settings made for image
set atom 837 type 2
Setting atom values ...
  1 settings made for type
set atom 837 charge 4.0
Setting atom values ...
  1 settings made for charge
set atom 837 image 0 0 0
Setting atom values ...
  1 settings made for image
set atom 838 type 1
Setting atom values ...
  1 settings made for type
set atom 838 charge 2.0
Setting atom values ...
  1 settings made for charge
set atom 838 image 0 0 0
Setting atom values ...
  1 settings made for image
set atom 839 type 5
Setting atom values ...
  1 settings made for type
set atom 839 charge -2.0
Setting atom values ...
  1 settings made for charge
set atom 839 image 0 0 0
Setting atom values ...
  1 settings made for image
set atom 840 type 5
Setting atom values ...
  1 settings made for type
set atom 840 charge -2.0
Setting atom values ...
  1 settings made for charge
set atom 840 image 0 0 0
Setting atom values ...
  1 settings made for image
set atom 841 type 5
Setting atom values ...
  1 settings made for type
set atom 841 charge -2.0
Setting atom values ...
  1 settings made for charge
set atom 841 image 0 0 0
Setting atom values ...
  1 settings made for image
set atom 842 type 2
Setting atom values ...
  1 settings made for type
set atom 842 charge 4.0
Setting atom values ...
  1 settings made for charge
set atom 842 image 0 0 0
Setting atom values ...
  1 settings made for image
set atom 843 type 1
Setting atom values ...
  1 settings made for type
set atom 843 charge 2.0
Setting atom values ...
  1 settings made for charge
set atom 843 image 0 0 0
Setting atom values ...
  1 settings made for image
set atom 844 type 5
Setting atom values ...
  1 settings made for type
set atom 844 charge -2.0
Setting atom values ...
  1 settings made for charge
set atom 844 image 0 0 0
Setting atom values ...
  1 settings made for image
set atom 845 type 5
Setting atom values ...
  1 settings made for type
set atom 845 charge -2.0
Setting atom values ...
  1 settings made for charge
set atom 845 image 0 0 0
Setting atom values ...
  1 settings made for image
set atom 846 type 5
Setting atom values ...
  1 settings made for type
set atom 846 charge -2.0
Setting atom values ...
  1 settings made for charge
set atom 846 image 0 0 0
Setting atom values ...
  1 settings made for image
set atom 847 type 2
Setting atom values ...
  1 settings made for type
set atom 847 charge 4.0
Setting atom values ...
  1 settings made for charge
set atom 847 image 0 0 0
Setting atom values ...
  1 settings made for image
set atom 848 type 1
Setting atom values ...
  1 settings made for type
set atom 848 charge 2.0
Setting atom values ...
  1 settings made for charge
set atom 848 image 0 0 0
Setting atom values ...
  1 settings made for image
set atom 849 type 5
Setting atom values ...
  1 settings made for type
set atom 849 charge -2.0
Setting atom values ...
  1 settings made for charge
set atom 849 image 0 0 0
Setting atom values ...
  1 settings made for image
set atom 850 type 5
Setting atom values ...
  1 settings made for type
set atom 850 charge -2.0
Setting atom values ...
  1 settings made for charge
set atom 850 image 0 0 0
Setting atom values ...
  1 settings made for image
set atom 851 type 5
Setting atom values ...
  1 settings made for type
set atom 851 charge -2.0
Setting atom values ...
  1 settings made for charge
set atom 851 image 0 0 0
Setting atom values ...
  1 settings made for image
set atom 852 type 2
Setting atom values ...
  1 settings made for type
set atom 852 charge 4.0
Setting atom values ...
  1 settings made for charge
set atom 852 image 0 0 0
Setting atom values ...
  1 settings made for image
set atom 853 type 1
Setting atom values ...
  1 settings made for type
set atom 853 charge 2.0
Setting atom values ...
  1 settings made for charge
set atom 853 image 0 0 0
Setting atom values ...
  1 settings made for image
set atom 854 type 5
Setting atom values ...
  1 settings made for type
set atom 854 charge -2.0
Setting atom values ...
  1 settings made for charge
set atom 854 image 0 0 0
Setting atom values ...
  1 settings made for image
set atom 855 type 5
Setting atom values ...
  1 settings made for type
set atom 855 charge -2.0
Setting atom values ...
  1 settings made for charge
set atom 855 image 0 0 0
Setting atom values ...
  1 settings made for image
set atom 856 type 5
Setting atom values ...
  1 settings made for type
set atom 856 charge -2.0
Setting atom values ...
  1 settings made for charge
set atom 856 image 0 0 0
Setting atom values ...
  1 settings made for image
set atom 857 type 2
Setting atom values ...
  1 settings made for type
set atom 857 charge 4.0
Setting atom values ...
  1 settings made for charge
set atom 857 image 0 0 0
Setting atom values ...
  1 settings made for image
set atom 858 type 1
Setting atom values ...
  1 settings made for type
set atom 858 charge 2.0
Setting atom values ...
  1 settings made for charge
set atom 858 image 0 0 0
Setting atom values ...
  1 settings made for image
set atom 859 type 5
Setting atom values ...
  1 settings made for type
set atom 859 charge -2.0
Setting atom values ...
  1 settings made for charge
set atom 859 image 0 0 0
Setting atom values ...
  1 settings made for image
set atom 860 type 5
Setting atom values ...
  1 settings made for type
set atom 860 charge -2.0
Setting atom values ...
  1 settings made for charge
set atom 860 image 0 0 0
Setting atom values ...
  1 settings made for image
set atom 861 type 5
Setting atom values ...
  1 settings made for type
set atom 861 charge -2.0
Setting atom values ...
  1 settings made for charge
set atom 861 image 0 0 0
Setting atom values ...
  1 settings made for image
set atom 862 type 2
Setting atom values ...
  1 settings made for type
set atom 862 charge 4.0
Setting atom values ...
  1 settings made for charge
set atom 862 image 0 0 0
Setting atom values ...
  1 settings made for image
set atom 863 type 1
Setting atom values ...
  1 settings made for type
set atom 863 charge 2.0
Setting atom values ...
  1 settings made for charge
set atom 863 image 0 0 0
Setting atom values ...
  1 settings made for image
set atom 864 type 5
Setting atom values ...
  1 settings made for type
set atom 864 charge -2.0
Setting atom values ...
  1 settings made for charge
set atom 864 image 0 0 0
Setting atom values ...
  1 settings made for image
set atom 865 type 5
Setting atom values ...
  1 settings made for type
set atom 865 charge -2.0
Setting atom values ...
  1 settings made for charge
set atom 865 image 0 0 0
Setting atom values ...
  1 settings made for image
set atom 866 type 5
Setting atom values ...
  1 settings made for type
set atom 866 charge -2.0
Setting atom values ...
  1 settings made for charge
set atom 866 image 0 0 0
Setting atom values ...
  1 settings made for image
set atom 867 type 2
Setting atom values ...
  1 settings made for type
set atom 867 charge 4.0
Setting atom values ...
  1 settings made for charge
set atom 867 image 0 0 0
Setting atom values ...
  1 settings made for image
set atom 868 type 1
Setting atom values ...
  1 settings made for type
set atom 868 charge 2.0
Setting atom values ...
  1 settings made for charge
set atom 868 image 0 0 0
Setting atom values ...
  1 settings made for image
set atom 869 type 5
Setting atom values ...
  1 settings made for type
set atom 869 charge -2.0
Setting atom values ...
  1 settings made for charge
set atom 869 image 0 0 0
Setting atom values ...
  1 settings made for image
set atom 870 type 5
Setting atom values ...
  1 settings made for type
set atom 870 charge -2.0
Setting atom values ...
  1 settings made for charge
set atom 870 image 0 0 0
Setting atom values ...
  1 settings made for image
set atom 871 type 5
Setting atom values ...
  1 settings made for type
set atom 871 charge -2.0
Setting atom values ...
  1 settings made for charge
set atom 871 image 0 0 0
Setting atom values ...
  1 settings made for image
set atom 872 type 2
Setting atom values ...
  1 settings made for type
set atom 872 charge 4.0
Setting atom values ...
  1 settings made for charge
set atom 872 image 0 0 0
Setting atom values ...
  1 settings made for image
set atom 873 type 1
Setting atom values ...
  1 settings made for type
set atom 873 charge 2.0
Setting atom values ...
  1 settings made for charge
set atom 873 image 0 0 0
Setting atom values ...
  1 settings made for image
set atom 874 type 5
Setting atom values ...
  1 settings made for type
set atom 874 charge -2.0
Setting atom values ...
  1 settings made for charge
set atom 874 image 0 0 0
Setting atom values ...
  1 settings made for image
set atom 875 type 5
Setting atom values ...
  1 settings made for type
set atom 875 charge -2.0
Setting atom values ...
  1 settings made for charge
set atom 875 image 0 0 0
Setting atom values ...
  1 settings made for image
set atom 876 type 5
Setting atom values ...
  1 settings made for type
set atom 876 charge -2.0
Setting atom values ...
  1 settings made for charge
set atom 876 image 0 0 0
Setting atom values ...
  1 settings made for image
set atom 877 type 2
Setting atom values ...
  1 settings made for type
set atom 877 charge 4.0
Setting atom values ...
  1 settings made for charge
set atom 877 image 0 0 0
Setting atom values ...
  1 settings made for image
set atom 878 type 1
Setting atom values ...
  1 settings made for type
set atom 878 charge 2.0
Setting atom values ...
  1 settings made for charge
set atom 878 image 0 0 0
Setting atom values ...
  1 settings made for image
set atom 879 type 5
Setting atom values ...
  1 settings made for type
set atom 879 charge -2.0
Setting atom values ...
  1 settings made for charge
set atom 879 image 0 0 0
Setting atom values ...
  1 settings made for image
set atom 880 type 5
Setting atom values ...
  1 settings made for type
set atom 880 charge -2.0
Setting atom values ...
  1 settings made for charge
set atom 880 image 0 0 0
Setting atom values ...
  1 settings made for image
set atom 881 type 5
Setting atom values ...
  1 settings made for type
set atom 881 charge -2.0
Setting atom values ...
  1 settings made for charge
set atom 881 image 0 0 0
Setting atom values ...
  1 settings made for image
set atom 882 type 2
Setting atom values ...
  1 settings made for type
set atom 882 charge 4.0
Setting atom values ...
  1 settings made for charge
set atom 882 image 0 0 0
Setting atom values ...
  1 settings made for image
set atom 883 type 1
Setting atom values ...
  1 settings made for type
set atom 883 charge 2.0
Setting atom values ...
  1 settings made for charge
set atom 883 image 0 0 0
Setting atom values ...
  1 settings made for image
set atom 884 type 5
Setting atom values ...
  1 settings made for type
set atom 884 charge -2.0
Setting atom values ...
  1 settings made for charge
set atom 884 image 0 0 0
Setting atom values ...
  1 settings made for image
set atom 885 type 5
Setting atom values ...
  1 settings made for type
set atom 885 charge -2.0
Setting atom values ...
  1 settings made for charge
set atom 885 image 0 0 0
Setting atom values ...
  1 settings made for image
set atom 886 type 5
Setting atom values ...
  1 settings made for type
set atom 886 charge -2.0
Setting atom values ...
  1 settings made for charge
set atom 886 image 0 0 0
Setting atom values ...
  1 settings made for image
set atom 887 type 2
Setting atom values ...
  1 settings made for type
set atom 887 charge 4.0
Setting atom values ...
  1 settings made for charge
set atom 887 image 0 0 0
Setting atom values ...
  1 settings made for image
set atom 888 type 1
Setting atom values ...
  1 settings made for type
set atom 888 charge 2.0
Setting atom values ...
  1 settings made for charge
set atom 888 image 0 0 0
Setting atom values ...
  1 settings made for image
set atom 889 type 5
Setting atom values ...
  1 settings made for type
set atom 889 charge -2.0
Setting atom values ...
  1 settings made for charge
set atom 889 image 0 0 0
Setting atom values ...
  1 settings made for image
set atom 890 type 5
Setting atom values ...
  1 settings made for type
set atom 890 charge -2.0
Setting atom values ...
  1 settings made for charge
set atom 890 image 0 0 0
Setting atom values ...
  1 settings made for image
set atom 891 type 5
Setting atom values ...
  1 settings made for type
set atom 891 charge -2.0
Setting atom values ...
  1 settings made for charge
set atom 891 image 0 0 0
Setting atom values ...
  1 settings made for image
set atom 892 type 2
Setting atom values ...
  1 settings made for type
set atom 892 charge 4.0
Setting atom values ...
  1 settings made for charge
set atom 892 image 0 0 0
Setting atom values ...
  1 settings made for image
set atom 893 type 1
Setting atom values ...
  1 settings made for type
set atom 893 charge 2.0
Setting atom values ...
  1 settings made for charge
set atom 893 image 0 0 0
Setting atom values ...
  1 settings made for image
set atom 894 type 5
Setting atom values ...
  1 settings made for type
set atom 894 charge -2.0
Setting atom values ...
  1 settings made for charge
set atom 894 image 0 0 0
Setting atom values ...
  1 settings made for image
set atom 895 type 5
Setting atom values ...
  1 settings made for type
set atom 895 charge -2.0
Setting atom values ...
  1 settings made for charge
set atom 895 image 0 0 0
Setting atom values ...
  1 settings made for image
set atom 896 type 5
Setting atom values ...
  1 settings made for type
set atom 896 charge -2.0
Setting atom values ...
  1 settings made for charge
set atom 896 image 0 0 0
Setting atom values ...
  1 settings made for image
set atom 897 type 2
Setting atom values ...
  1 settings made for type
set atom 897 charge 4.0
Setting atom values ...
  1 settings made for charge
set atom 897 image 0 0 0
Setting atom values ...
  1 settings made for image
set atom 898 type 1
Setting atom values ...
  1 settings made for type
set atom 898 charge 2.0
Setting atom values ...
  1 settings made for charge
set atom 898 image 0 0 0
Setting atom values ...
  1 settings made for image
set atom 899 type 5
Setting atom values ...
  1 settings made for type
set atom 899 charge -2.0
Setting atom values ...
  1 settings made for charge
set atom 899 image 0 0 0
Setting atom values ...
  1 settings made for image
set atom 900 type 5
Setting atom values ...
  1 settings made for type
set atom 900 charge -2.0
Setting atom values ...
  1 settings made for charge
set atom 900 image 0 0 0
Setting atom values ...
  1 settings made for image
set atom 901 type 5
Setting atom values ...
  1 settings made for type
set atom 901 charge -2.0
Setting atom values ...
  1 settings made for charge
set atom 901 image 0 0 0
Setting atom values ...
  1 settings made for image
set atom 902 type 2
Setting atom values ...
  1 settings made for type
set atom 902 charge 4.0
Setting atom values ...
  1 settings made for charge
set atom 902 image 0 0 0
Setting atom values ...
  1 settings made for image
set atom 903 type 1
Setting atom values ...
  1 settings made for type
set atom 903 charge 2.0
Setting atom values ...
  1 settings made for charge
set atom 903 image 0 0 0
Setting atom values ...
  1 settings made for image
set atom 904 type 5
Setting atom values ...
  1 settings made for type
set atom 904 charge -2.0
Setting atom values ...
  1 settings made for charge
set atom 904 image 0 0 0
Setting atom values ...
  1 settings made for image
set atom 905 type 5
Setting atom values ...
  1 settings made for type
set atom 905 charge -2.0
Setting atom values ...
  1 settings made for charge
set atom 905 image 0 0 0
Setting atom values ...
  1 settings made for image
set atom 906 type 5
Setting atom values ...
  1 settings made for type
set atom 906 charge -2.0
Setting atom values ...
  1 settings made for charge
set atom 906 image 0 0 0
Setting atom values ...
  1 settings made for image
set atom 907 type 2
Setting atom values ...
  1 settings made for type
set atom 907 charge 4.0
Setting atom values ...
  1 settings made for charge
set atom 907 image 0 0 0
Setting atom values ...
  1 settings made for image
set atom 908 type 1
Setting atom values ...
  1 settings made for type
set atom 908 charge 2.0
Setting atom values ...
  1 settings made for charge
set atom 908 image 0 0 0
Setting atom values ...
  1 settings made for image
set atom 909 type 5
Setting atom values ...
  1 settings made for type
set atom 909 charge -2.0
Setting atom values ...
  1 settings made for charge
set atom 909 image 0 0 0
Setting atom values ...
  1 settings made for image
set atom 910 type 5
Setting atom values ...
  1 settings made for type
set atom 910 charge -2.0
Setting atom values ...
  1 settings made for charge
set atom 910 image 0 0 0
Setting atom values ...
  1 settings made for image
set atom 911 type 5
Setting atom values ...
  1 settings made for type
set atom 911 charge -2.0
Setting atom values ...
  1 settings made for charge
set atom 911 image 0 0 0
Setting atom values ...
  1 settings made for image
set atom 912 type 2
Setting atom values ...
  1 settings made for type
set atom 912 charge 4.0
Setting atom values ...
  1 settings made for charge
set atom 912 image 0 0 0
Setting atom values ...
  1 settings made for image
set atom 913 type 1
Setting atom values ...
  1 settings made for type
set atom 913 charge 2.0
Setting atom values ...
  1 settings made for charge
set atom 913 image 0 0 0
Setting atom values ...
  1 settings made for image
set atom 914 type 5
Setting atom values ...
  1 settings made for type
set atom 914 charge -2.0
Setting atom values ...
  1 settings made for charge
set atom 914 image 0 0 0
Setting atom values ...
  1 settings made for image
set atom 915 type 5
Setting atom values ...
  1 settings made for type
set atom 915 charge -2.0
Setting atom values ...
  1 settings made for charge
set atom 915 image 0 0 0
Setting atom values ...
  1 settings made for image
set atom 916 type 5
Setting atom values ...
  1 settings made for type
set atom 916 charge -2.0
Setting atom values ...
  1 settings made for charge
set atom 916 image 0 0 0
Setting atom values ...
  1 settings made for image
set atom 917 type 2
Setting atom values ...
  1 settings made for type
set atom 917 charge 4.0
Setting atom values ...
  1 settings made for charge
set atom 917 image 0 0 0
Setting atom values ...
  1 settings made for image
set atom 918 type 1
Setting atom values ...
  1 settings made for type
set atom 918 charge 2.0
Setting atom values ...
  1 settings made for charge
set atom 918 image 0 0 0
Setting atom values ...
  1 settings made for image
set atom 919 type 5
Setting atom values ...
  1 settings made for type
set atom 919 charge -2.0
Setting atom values ...
  1 settings made for charge
set atom 919 image 0 0 0
Setting atom values ...
  1 settings made for image
set atom 920 type 5
Setting atom values ...
  1 settings made for type
set atom 920 charge -2.0
Setting atom values ...
  1 settings made for charge
set atom 920 image 0 0 0
Setting atom values ...
  1 settings made for image
set atom 921 type 5
Setting atom values ...
  1 settings made for type
set atom 921 charge -2.0
Setting atom values ...
  1 settings made for charge
set atom 921 image 0 0 0
Setting atom values ...
  1 settings made for image
set atom 922 type 2
Setting atom values ...
  1 settings made for type
set atom 922 charge 4.0
Setting atom values ...
  1 settings made for charge
set atom 922 image 0 0 0
Setting atom values ...
  1 settings made for image
set atom 923 type 1
Setting atom values ...
  1 settings made for type
set atom 923 charge 2.0
Setting atom values ...
  1 settings made for charge
set atom 923 image 0 0 0
Setting atom values ...
  1 settings made for image
set atom 924 type 5
Setting atom values ...
  1 settings made for type
set atom 924 charge -2.0
Setting atom values ...
  1 settings made for charge
set atom 924 image 0 0 0
Setting atom values ...
  1 settings made for image
set atom 925 type 5
Setting atom values ...
  1 settings made for type
set atom 925 charge -2.0
Setting atom values ...
  1 settings made for charge
set atom 925 image 0 0 0
Setting atom values ...
  1 settings made for image
set atom 926 type 5
Setting atom values ...
  1 settings made for type
set atom 926 charge -2.0
Setting atom values ...
  1 settings made for charge
set atom 926 image 0 0 0
Setting atom values ...
  1 settings made for image
set atom 927 type 2
Setting atom values ...
  1 settings made for type
set atom 927 charge 4.0
Setting atom values ...
  1 settings made for charge
set atom 927 image 0 0 0
Setting atom values ...
  1 settings made for image
set atom 928 type 1
Setting atom values ...
  1 settings made for type
set atom 928 charge 2.0
Setting atom values ...
  1 settings made for charge
set atom 928 image 0 0 0
Setting atom values ...
  1 settings made for image
set atom 929 type 5
Setting atom values ...
  1 settings made for type
set atom 929 charge -2.0
Setting atom values ...
  1 settings made for charge
set atom 929 image 0 0 0
Setting atom values ...
  1 settings made for image
set atom 930 type 5
Setting atom values ...
  1 settings made for type
set atom 930 charge -2.0
Setting atom values ...
  1 settings made for charge
set atom 930 image 0 0 0
Setting atom values ...
  1 settings made for image
set atom 931 type 5
Setting atom values ...
  1 settings made for type
set atom 931 charge -2.0
Setting atom values ...
  1 settings made for charge
set atom 931 image 0 0 0
Setting atom values ...
  1 settings made for image
set atom 932 type 2
Setting atom values ...
  1 settings made for type
set atom 932 charge 4.0
Setting atom values ...
  1 settings made for charge
set atom 932 image 0 0 0
Setting atom values ...
  1 settings made for image
set atom 933 type 1
Setting atom values ...
  1 settings made for type
set atom 933 charge 2.0
Setting atom values ...
  1 settings made for charge
set atom 933 image 0 0 0
Setting atom values ...
  1 settings made for image
set atom 934 type 5
Setting atom values ...
  1 settings made for type
set atom 934 charge -2.0
Setting atom values ...
  1 settings made for charge
set atom 934 image 0 0 0
Setting atom values ...
  1 settings made for image
set atom 935 type 5
Setting atom values ...
  1 settings made for type
set atom 935 charge -2.0
Setting atom values ...
  1 settings made for charge
set atom 935 image 0 0 0
Setting atom values ...
  1 settings made for image
set atom 936 type 5
Setting atom values ...
  1 settings made for type
set atom 936 charge -2.0
Setting atom values ...
  1 settings made for charge
set atom 936 image 0 0 0
Setting atom values ...
  1 settings made for image
set atom 937 type 2
Setting atom values ...
  1 settings made for type
set atom 937 charge 4.0
Setting atom values ...
  1 settings made for charge
set atom 937 image 0 0 0
Setting atom values ...
  1 settings made for image
set atom 938 type 1
Setting atom values ...
  1 settings made for type
set atom 938 charge 2.0
Setting atom values ...
  1 settings made for charge
set atom 938 image 0 0 0
Setting atom values ...
  1 settings made for image
set atom 939 type 5
Setting atom values ...
  1 settings made for type
set atom 939 charge -2.0
Setting atom values ...
  1 settings made for charge
set atom 939 image 0 0 0
Setting atom values ...
  1 settings made for image
set atom 940 type 5
Setting atom values ...
  1 settings made for type
set atom 940 charge -2.0
Setting atom values ...
  1 settings made for charge
set atom 940 image 0 0 0
Setting atom values ...
  1 settings made for image
set atom 941 type 5
Setting atom values ...
  1 settings made for type
set atom 941 charge -2.0
Setting atom values ...
  1 settings made for charge
set atom 941 image 0 0 0
Setting atom values ...
  1 settings made for image
set atom 942 type 2
Setting atom values ...
  1 settings made for type
set atom 942 charge 4.0
Setting atom values ...
  1 settings made for charge
set atom 942 image 0 0 0
Setting atom values ...
  1 settings made for image
set atom 943 type 1
Setting atom values ...
  1 settings made for type
set atom 943 charge 2.0
Setting atom values ...
  1 settings made for charge
set atom 943 image 0 0 0
Setting atom values ...
  1 settings made for image
set atom 944 type 5
Setting atom values ...
  1 settings made for type
set atom 944 charge -2.0
Setting atom values ...
  1 settings made for charge
set atom 944 image 0 0 0
Setting atom values ...
  1 settings made for image
set atom 945 type 5
Setting atom values ...
  1 settings made for type
set atom 945 charge -2.0
Setting atom values ...
  1 settings made for charge
set atom 945 image 0 0 0
Setting atom values ...
  1 settings made for image
set atom 946 type 5
Setting atom values ...
  1 settings made for type
set atom 946 charge -2.0
Setting atom values ...
  1 settings made for charge
set atom 946 image 0 0 0
Setting atom values ...
  1 settings made for image
set atom 947 type 2
Setting atom values ...
  1 settings made for type
set atom 947 charge 4.0
Setting atom values ...
  1 settings made for charge
set atom 947 image 0 0 0
Setting atom values ...
  1 settings made for image
set atom 948 type 1
Setting atom values ...
  1 settings made for type
set atom 948 charge 2.0
Setting atom values ...
  1 settings made for charge
set atom 948 image 0 0 0
Setting atom values ...
  1 settings made for image
set atom 949 type 5
Setting atom values ...
  1 settings made for type
set atom 949 charge -2.0
Setting atom values ...
  1 settings made for charge
set atom 949 image 0 0 0
Setting atom values ...
  1 settings made for image
set atom 950 type 5
Setting atom values ...
  1 settings made for type
set atom 950 charge -2.0
Setting atom values ...
  1 settings made for charge
set atom 950 image 0 0 0
Setting atom values ...
  1 settings made for image
set atom 951 type 5
Setting atom values ...
  1 settings made for type
set atom 951 charge -2.0
Setting atom values ...
  1 settings made for charge
set atom 951 image 0 0 0
Setting atom values ...
  1 settings made for image
set atom 952 type 2
Setting atom values ...
  1 settings made for type
set atom 952 charge 4.0
Setting atom values ...
  1 settings made for charge
set atom 952 image 0 0 0
Setting atom values ...
  1 settings made for image
set atom 953 type 1
Setting atom values ...
  1 settings made for type
set atom 953 charge 2.0
Setting atom values ...
  1 settings made for charge
set atom 953 image 0 0 0
Setting atom values ...
  1 settings made for image
set atom 954 type 5
Setting atom values ...
  1 settings made for type
set atom 954 charge -2.0
Setting atom values ...
  1 settings made for charge
set atom 954 image 0 0 0
Setting atom values ...
  1 settings made for image
set atom 955 type 5
Setting atom values ...
  1 settings made for type
set atom 955 charge -2.0
Setting atom values ...
  1 settings made for charge
set atom 955 image 0 0 0
Setting atom values ...
  1 settings made for image
set atom 956 type 5
Setting atom values ...
  1 settings made for type
set atom 956 charge -2.0
Setting atom values ...
  1 settings made for charge
set atom 956 image 0 0 0
Setting atom values ...
  1 settings made for image
set atom 957 type 2
Setting atom values ...
  1 settings made for type
set atom 957 charge 4.0
Setting atom values ...
  1 settings made for charge
set atom 957 image 0 0 0
Setting atom values ...
  1 settings made for image
set atom 958 type 1
Setting atom values ...
  1 settings made for type
set atom 958 charge 2.0
Setting atom values ...
  1 settings made for charge
set atom 958 image 0 0 0
Setting atom values ...
  1 settings made for image
set atom 959 type 5
Setting atom values ...
  1 settings made for type
set atom 959 charge -2.0
Setting atom values ...
  1 settings made for charge
set atom 959 image 0 0 0
Setting atom values ...
  1 settings made for image
set atom 960 type 5
Setting atom values ...
  1 settings made for type
set atom 960 charge -2.0
Setting atom values ...
  1 settings made for charge
set atom 960 image 0 0 0
Setting atom values ...
  1 settings made for image
set atom 961 type 5
Setting atom values ...
  1 settings made for type
set atom 961 charge -2.0
Setting atom values ...
  1 settings made for charge
set atom 961 image 0 0 0
Setting atom values ...
  1 settings made for image
set atom 962 type 2
Setting atom values ...
  1 settings made for type
set atom 962 charge 4.0
Setting atom values ...
  1 settings made for charge
set atom 962 image 0 0 0
Setting atom values ...
  1 settings made for image
set atom 963 type 1
Setting atom values ...
  1 settings made for type
set atom 963 charge 2.0
Setting atom values ...
  1 settings made for charge
set atom 963 image 0 0 0
Setting atom values ...
  1 settings made for image
set atom 964 type 5
Setting atom values ...
  1 settings made for type
set atom 964 charge -2.0
Setting atom values ...
  1 settings made for charge
set atom 964 image 0 0 0
Setting atom values ...
  1 settings made for image
set atom 965 type 5
Setting atom values ...
  1 settings made for type
set atom 965 charge -2.0
Setting atom values ...
  1 settings made for charge
set atom 965 image 0 0 0
Setting atom values ...
  1 settings made for image
set atom 966 type 5
Setting atom values ...
  1 settings made for type
set atom 966 charge -2.0
Setting atom values ...
  1 settings made for charge
set atom 966 image 0 0 0
Setting atom values ...
  1 settings made for image
set atom 967 type 2
Setting atom values ...
  1 settings made for type
set atom 967 charge 4.0
Setting atom values ...
  1 settings made for charge
set atom 967 image 0 0 0
Setting atom values ...
  1 settings made for image
set atom 968 type 1
Setting atom values ...
  1 settings made for type
set atom 968 charge 2.0
Setting atom values ...
  1 settings made for charge
set atom 968 image 0 0 0
Setting atom values ...
  1 settings made for image
set atom 969 type 5
Setting atom values ...
  1 settings made for type
set atom 969 charge -2.0
Setting atom values ...
  1 settings made for charge
set atom 969 image 0 0 0
Setting atom values ...
  1 settings made for image
set atom 970 type 5
Setting atom values ...
  1 settings made for type
set atom 970 charge -2.0
Setting atom values ...
  1 settings made for charge
set atom 970 image 0 0 0
Setting atom values ...
  1 settings made for image
set atom 971 type 5
Setting atom values ...
  1 settings made for type
set atom 971 charge -2.0
Setting atom values ...
  1 settings made for charge
set atom 971 image 0 0 0
Setting atom values ...
  1 settings made for image
set atom 972 type 2
Setting atom values ...
  1 settings made for type
set atom 972 charge 4.0
Setting atom values ...
  1 settings made for charge
set atom 972 image 0 0 0
Setting atom values ...
  1 settings made for image
set atom 973 type 1
Setting atom values ...
  1 settings made for type
set atom 973 charge 2.0
Setting atom values ...
  1 settings made for charge
set atom 973 image 0 0 0
Setting atom values ...
  1 settings made for image
set atom 974 type 5
Setting atom values ...
  1 settings made for type
set atom 974 charge -2.0
Setting atom values ...
  1 settings made for charge
set atom 974 image 0 0 0
Setting atom values ...
  1 settings made for image
set atom 975 type 5
Setting atom values ...
  1 settings made for type
set atom 975 charge -2.0
Setting atom values ...
  1 settings made for charge
set atom 975 image 0 0 0
Setting atom values ...
  1 settings made for image
set atom 976 type 5
Setting atom values ...
  1 settings made for type
set atom 976 charge -2.0
Setting atom values ...
  1 settings made for charge
set atom 976 image 0 0 0
Setting atom values ...
  1 settings made for image
set atom 977 type 2
Setting atom values ...
  1 settings made for type
set atom 977 charge 4.0
Setting atom values ...
  1 settings made for charge
set atom 977 image 0 0 0
Setting atom values ...
  1 settings made for image
set atom 978 type 1
Setting atom values ...
  1 settings made for type
set atom 978 charge 2.0
Setting atom values ...
  1 settings made for charge
set atom 978 image 0 0 0
Setting atom values ...
  1 settings made for image
set atom 979 type 5
Setting atom values ...
  1 settings made for type
set atom 979 charge -2.0
Setting atom values ...
  1 settings made for charge
set atom 979 image 0 0 0
Setting atom values ...
  1 settings made for image
set atom 980 type 5
Setting atom values ...
  1 settings made for type
set atom 980 charge -2.0
Setting atom values ...
  1 settings made for charge
set atom 980 image 0 0 0
Setting atom values ...
  1 settings made for image
set atom 981 type 5
Setting atom values ...
  1 settings made for type
set atom 981 charge -2.0
Setting atom values ...
  1 settings made for charge
set atom 981 image 0 0 0
Setting atom values ...
  1 settings made for image
set atom 982 type 2
Setting atom values ...
  1 settings made for type
set atom 982 charge 4.0
Setting atom values ...
  1 settings made for charge
set atom 982 image 0 0 0
Setting atom values ...
  1 settings made for image
set atom 983 type 1
Setting atom values ...
  1 settings made for type
set atom 983 charge 2.0
Setting atom values ...
  1 settings made for charge
set atom 983 image 0 0 0
Setting atom values ...
  1 settings made for image
set atom 984 type 5
Setting atom values ...
  1 settings made for type
set atom 984 charge -2.0
Setting atom values ...
  1 settings made for charge
set atom 984 image 0 0 0
Setting atom values ...
  1 settings made for image
set atom 985 type 5
Setting atom values ...
  1 settings made for type
set atom 985 charge -2.0
Setting atom values ...
  1 settings made for charge
set atom 985 image 0 0 0
Setting atom values ...
  1 settings made for image
set atom 986 type 5
Setting atom values ...
  1 settings made for type
set atom 986 charge -2.0
Setting atom values ...
  1 settings made for charge
set atom 986 image 0 0 0
Setting atom values ...
  1 settings made for image
set atom 987 type 2
Setting atom values ...
  1 settings made for type
set atom 987 charge 4.0
Setting atom values ...
  1 settings made for charge
set atom 987 image 0 0 0
Setting atom values ...
  1 settings made for image
set atom 988 type 1
Setting atom values ...
  1 settings made for type
set atom 988 charge 2.0
Setting atom values ...
  1 settings made for charge
set atom 988 image 0 0 0
Setting atom values ...
  1 settings made for image
set atom 989 type 5
Setting atom values ...
  1 settings made for type
set atom 989 charge -2.0
Setting atom values ...
  1 settings made for charge
set atom 989 image 0 0 0
Setting atom values ...
  1 settings made for image
set atom 990 type 5
Setting atom values ...
  1 settings made for type
set atom 990 charge -2.0
Setting atom values ...
  1 settings made for charge
set atom 990 image 0 0 0
Setting atom values ...
  1 settings made for image
set atom 991 type 5
Setting atom values ...
  1 settings made for type
set atom 991 charge -2.0
Setting atom values ...
  1 settings made for charge
set atom 991 image 0 0 0
Setting atom values ...
  1 settings made for image
set atom 992 type 2
Setting atom values ...
  1 settings made for type
set atom 992 charge 4.0
Setting atom values ...
  1 settings made for charge
set atom 992 image 0 0 0
Setting atom values ...
  1 settings made for image
set atom 993 type 1
Setting atom values ...
  1 settings made for type
set atom 993 charge 2.0
Setting atom values ...
  1 settings made for charge
set atom 993 image 0 0 0
Setting atom values ...
  1 settings made for image
set atom 994 type 5
Setting atom values ...
  1 settings made for type
set atom 994 charge -2.0
Setting atom values ...
  1 settings made for charge
set atom 994 image 0 0 0
Setting atom values ...
  1 settings made for image
set atom 995 type 5
Setting atom values ...
  1 settings made for type
set atom 995 charge -2.0
Setting atom values ...
  1 settings made for charge
set atom 995 image 0 0 0
Setting atom values ...
  1 settings made for image
set atom 996 type 5
Setting atom values ...
  1 settings made for type
set atom 996 charge -2.0
Setting atom values ...
  1 settings made for charge
set atom 996 image 0 0 0
Setting atom values ...
  1 settings made for image
set atom 997 type 2
Setting atom values ...
  1 settings made for type
set atom 997 charge 4.0
Setting atom values ...
  1 settings made for charge
set atom 997 image 0 0 0
Setting atom values ...
  1 settings made for image
set atom 998 type 1
Setting atom values ...
  1 settings made for type
set atom 998 charge 2.0
Setting atom values ...
  1 settings made for charge
set atom 998 image 0 0 0
Setting atom values ...
  1 settings made for image
set atom 999 type 5
Setting atom values ...
  1 settings made for type
set atom 999 charge -2.0
Setting atom values ...
  1 settings made for charge
set atom 999 image 0 0 0
Setting atom values ...
  1 settings made for image
set atom 1000 type 5
Setting atom values ...
  1 settings made for type
set atom 1000 charge -2.0
Setting atom values ...
  1 settings made for charge
set atom 1000 image 0 0 0
Setting atom values ...
  1 settings made for image
set atom 1001 type 5
Setting atom values ...
  1 settings made for type
set atom 1001 charge -2.0
Setting atom values ...
  1 settings made for charge
set atom 1001 image 0 0 0
Setting atom values ...
  1 settings made for image
set atom 1002 type 2
Setting atom values ...
  1 settings made for type
set atom 1002 charge 4.0
Setting atom values ...
  1 settings made for charge
set atom 1002 image 0 0 0
Setting atom values ...
  1 settings made for image
set atom 1003 type 1
Setting atom values ...
  1 settings made for type
set atom 1003 charge 2.0
Setting atom values ...
  1 settings made for charge
set atom 1003 image 0 0 0
Setting atom values ...
  1 settings made for image
set atom 1004 type 5
Setting atom values ...
  1 settings made for type
set atom 1004 charge -2.0
Setting atom values ...
  1 settings made for charge
set atom 1004 image 0 0 0
Setting atom values ...
  1 settings made for image
set atom 1005 type 5
Setting atom values ...
  1 settings made for type
set atom 1005 charge -2.0
Setting atom values ...
  1 settings made for charge
set atom 1005 image 0 0 0
Setting atom values ...
  1 settings made for image
set atom 1006 type 5
Setting atom values ...
  1 settings made for type
set atom 1006 charge -2.0
Setting atom values ...
  1 settings made for charge
set atom 1006 image 0 0 0
Setting atom values ...
  1 settings made for image
set atom 1007 type 2
Setting atom values ...
  1 settings made for type
set atom 1007 charge 4.0
Setting atom values ...
  1 settings made for charge
set atom 1007 image 0 0 0
Setting atom values ...
  1 settings made for image
set atom 1008 type 1
Setting atom values ...
  1 settings made for type
set atom 1008 charge 2.0
Setting atom values ...
  1 settings made for charge
set atom 1008 image 0 0 0
Setting atom values ...
  1 settings made for image
set atom 1009 type 5
Setting atom values ...
  1 settings made for type
set atom 1009 charge -2.0
Setting atom values ...
  1 settings made for charge
set atom 1009 image 0 0 0
Setting atom values ...
  1 settings made for image
set atom 1010 type 5
Setting atom values ...
  1 settings made for type
set atom 1010 charge -2.0
Setting atom values ...
  1 settings made for charge
set atom 1010 image 0 0 0
Setting atom values ...
  1 settings made for image
set atom 1011 type 5
Setting atom values ...
  1 settings made for type
set atom 1011 charge -2.0
Setting atom values ...
  1 settings made for charge
set atom 1011 image 0 0 0
Setting atom values ...
  1 settings made for image
set atom 1012 type 2
Setting atom values ...
  1 settings made for type
set atom 1012 charge 4.0
Setting atom values ...
  1 settings made for charge
set atom 1012 image 0 0 0
Setting atom values ...
  1 settings made for image
set atom 1013 type 1
Setting atom values ...
  1 settings made for type
set atom 1013 charge 2.0
Setting atom values ...
  1 settings made for charge
set atom 1013 image 0 0 0
Setting atom values ...
  1 settings made for image
set atom 1014 type 5
Setting atom values ...
  1 settings made for type
set atom 1014 charge -2.0
Setting atom values ...
  1 settings made for charge
set atom 1014 image 0 0 0
Setting atom values ...
  1 settings made for image
set atom 1015 type 5
Setting atom values ...
  1 settings made for type
set atom 1015 charge -2.0
Setting atom values ...
  1 settings made for charge
set atom 1015 image 0 0 0
Setting atom values ...
  1 settings made for image
set atom 1016 type 5
Setting atom values ...
  1 settings made for type
set atom 1016 charge -2.0
Setting atom values ...
  1 settings made for charge
set atom 1016 image 0 0 0
Setting atom values ...
  1 settings made for image
set atom 1017 type 2
Setting atom values ...
  1 settings made for type
set atom 1017 charge 4.0
Setting atom values ...
  1 settings made for charge
set atom 1017 image 0 0 0
Setting atom values ...
  1 settings made for image
set atom 1018 type 1
Setting atom values ...
  1 settings made for type
set atom 1018 charge 2.0
Setting atom values ...
  1 settings made for charge
set atom 1018 image 0 0 0
Setting atom values ...
  1 settings made for image
set atom 1019 type 5
Setting atom values ...
  1 settings made for type
set atom 1019 charge -2.0
Setting atom values ...
  1 settings made for charge
set atom 1019 image 0 0 0
Setting atom values ...
  1 settings made for image
set atom 1020 type 5
Setting atom values ...
  1 settings made for type
set atom 1020 charge -2.0
Setting atom values ...
  1 settings made for charge
set atom 1020 image 0 0 0
Setting atom values ...
  1 settings made for image
set atom 1021 type 5
Setting atom values ...
  1 settings made for type
set atom 1021 charge -2.0
Setting atom values ...
  1 settings made for charge
set atom 1021 image 0 0 0
Setting atom values ...
  1 settings made for image
set atom 1022 type 2
Setting atom values ...
  1 settings made for type
set atom 1022 charge 4.0
Setting atom values ...
  1 settings made for charge
set atom 1022 image 0 0 0
Setting atom values ...
  1 settings made for image
set atom 1023 type 1
Setting atom values ...
  1 settings made for type
set atom 1023 charge 2.0
Setting atom values ...
  1 settings made for charge
set atom 1023 image 0 0 0
Setting atom values ...
  1 settings made for image
set atom 1024 type 5
Setting atom values ...
  1 settings made for type
set atom 1024 charge -2.0
Setting atom values ...
  1 settings made for charge
set atom 1024 image 0 0 0
Setting atom values ...
  1 settings made for image
set atom 1025 type 5
Setting atom values ...
  1 settings made for type
set atom 1025 charge -2.0
Setting atom values ...
  1 settings made for charge
set atom 1025 image 0 0 0
Setting atom values ...
  1 settings made for image
set atom 1026 type 5
Setting atom values ...
  1 settings made for type
set atom 1026 charge -2.0
Setting atom values ...
  1 settings made for charge
set atom 1026 image 0 0 0
Setting atom values ...
  1 settings made for image
set atom 1027 type 2
Setting atom values ...
  1 settings made for type
set atom 1027 charge 4.0
Setting atom values ...
  1 settings made for charge
set atom 1027 image 0 0 0
Setting atom values ...
  1 settings made for image
set atom 1028 type 1
Setting atom values ...
  1 settings made for type
set atom 1028 charge 2.0
Setting atom values ...
  1 settings made for charge
set atom 1028 image 0 0 0
Setting atom values ...
  1 settings made for image
set atom 1029 type 5
Setting atom values ...
  1 settings made for type
set atom 1029 charge -2.0
Setting atom values ...
  1 settings made for charge
set atom 1029 image 0 0 0
Setting atom values ...
  1 settings made for image
set atom 1030 type 5
Setting atom values ...
  1 settings made for type
set atom 1030 charge -2.0
Setting atom values ...
  1 settings made for charge
set atom 1030 image 0 0 0
Setting atom values ...
  1 settings made for image
set atom 1031 type 5
Setting atom values ...
  1 settings made for type
set atom 1031 charge -2.0
Setting atom values ...
  1 settings made for charge
set atom 1031 image 0 0 0
Setting atom values ...
  1 settings made for image
set atom 1032 type 2
Setting atom values ...
  1 settings made for type
set atom 1032 charge 4.0
Setting atom values ...
  1 settings made for charge
set atom 1032 image 0 0 0
Setting atom values ...
  1 settings made for image
set atom 1033 type 1
Setting atom values ...
  1 settings made for type
set atom 1033 charge 2.0
Setting atom values ...
  1 settings made for charge
set atom 1033 image 0 0 0
Setting atom values ...
  1 settings made for image
set atom 1034 type 5
Setting atom values ...
  1 settings made for type
set atom 1034 charge -2.0
Setting atom values ...
  1 settings made for charge
set atom 1034 image 0 0 0
Setting atom values ...
  1 settings made for image
set atom 1035 type 5
Setting atom values ...
  1 settings made for type
set atom 1035 charge -2.0
Setting atom values ...
  1 settings made for charge
set atom 1035 image 0 0 0
Setting atom values ...
  1 settings made for image
set atom 1036 type 5
Setting atom values ...
  1 settings made for type
set atom 1036 charge -2.0
Setting atom values ...
  1 settings made for charge
set atom 1036 image 0 0 0
Setting atom values ...
  1 settings made for image
set atom 1037 type 2
Setting atom values ...
  1 settings made for type
set atom 1037 charge 4.0
Setting atom values ...
  1 settings made for charge
set atom 1037 image 0 0 0
Setting atom values ...
  1 settings made for image
set atom 1038 type 1
Setting atom values ...
  1 settings made for type
set atom 1038 charge 2.0
Setting atom values ...
  1 settings made for charge
set atom 1038 image 0 0 0
Setting atom values ...
  1 settings made for image
set atom 1039 type 5
Setting atom values ...
  1 settings made for type
set atom 1039 charge -2.0
Setting atom values ...
  1 settings made for charge
set atom 1039 image 0 0 0
Setting atom values ...
  1 settings made for image
set atom 1040 type 5
Setting atom values ...
  1 settings made for type
set atom 1040 charge -2.0
Setting atom values ...
  1 settings made for charge
set atom 1040 image 0 0 0
Setting atom values ...
  1 settings made for image
set atom 1041 type 5
Setting atom values ...
  1 settings made for type
set atom 1041 charge -2.0
Setting atom values ...
  1 settings made for charge
set atom 1041 image 0 0 0
Setting atom values ...
  1 settings made for image
set atom 1042 type 2
Setting atom values ...
  1 settings made for type
set atom 1042 charge 4.0
Setting atom values ...
  1 settings made for charge
set atom 1042 image 0 0 0
Setting atom values ...
  1 settings made for image
set atom 1043 type 1
Setting atom values ...
  1 settings made for type
set atom 1043 charge 2.0
Setting atom values ...
  1 settings made for charge
set atom 1043 image 0 0 0
Setting atom values ...
  1 settings made for image
set atom 1044 type 5
Setting atom values ...
  1 settings made for type
set atom 1044 charge -2.0
Setting atom values ...
  1 settings made for charge
set atom 1044 image 0 0 0
Setting atom values ...
  1 settings made for image
set atom 1045 type 5
Setting atom values ...
  1 settings made for type
set atom 1045 charge -2.0
Setting atom values ...
  1 settings made for charge
set atom 1045 image 0 0 0
Setting atom values ...
  1 settings made for image
set atom 1046 type 5
Setting atom values ...
  1 settings made for type
set atom 1046 charge -2.0
Setting atom values ...
  1 settings made for charge
set atom 1046 image 0 0 0
Setting atom values ...
  1 settings made for image
set atom 1047 type 2
Setting atom values ...
  1 settings made for type
set atom 1047 charge 4.0
Setting atom values ...
  1 settings made for charge
set atom 1047 image 0 0 0
Setting atom values ...
  1 settings made for image
set atom 1048 type 1
Setting atom values ...
  1 settings made for type
set atom 1048 charge 2.0
Setting atom values ...
  1 settings made for charge
set atom 1048 image 0 0 0
Setting atom values ...
  1 settings made for image
set atom 1049 type 5
Setting atom values ...
  1 settings made for type
set atom 1049 charge -2.0
Setting atom values ...
  1 settings made for charge
set atom 1049 image 0 0 0
Setting atom values ...
  1 settings made for image
set atom 1050 type 5
Setting atom values ...
  1 settings made for type
set atom 1050 charge -2.0
Setting atom values ...
  1 settings made for charge
set atom 1050 image 0 0 0
Setting atom values ...
  1 settings made for image
set atom 1051 type 5
Setting atom values ...
  1 settings made for type
set atom 1051 charge -2.0
Setting atom values ...
  1 settings made for charge
set atom 1051 image 0 0 0
Setting atom values ...
  1 settings made for image
set atom 1052 type 2
Setting atom values ...
  1 settings made for type
set atom 1052 charge 4.0
Setting atom values ...
  1 settings made for charge
set atom 1052 image 0 0 0
Setting atom values ...
  1 settings made for image
set atom 1053 type 1
Setting atom values ...
  1 settings made for type
set atom 1053 charge 2.0
Setting atom values ...
  1 settings made for charge
set atom 1053 image 0 0 0
Setting atom values ...
  1 settings made for image
set atom 1054 type 5
Setting atom values ...
  1 settings made for type
set atom 1054 charge -2.0
Setting atom values ...
  1 settings made for charge
set atom 1054 image 0 0 0
Setting atom values ...
  1 settings made for image
set atom 1055 type 5
Setting atom values ...
  1 settings made for type
set atom 1055 charge -2.0
Setting atom values ...
  1 settings made for charge
set atom 1055 image 0 0 0
Setting atom values ...
  1 settings made for image
set atom 1056 type 5
Setting atom values ...
  1 settings made for type
set atom 1056 charge -2.0
Setting atom values ...
  1 settings made for charge
set atom 1056 image 0 0 0
Setting atom values ...
  1 settings made for image
set atom 1057 type 2
Setting atom values ...
  1 settings made for type
set atom 1057 charge 4.0
Setting atom values ...
  1 settings made for charge
set atom 1057 image 0 0 0
Setting atom values ...
  1 settings made for image
set atom 1058 type 1
Setting atom values ...
  1 settings made for type
set atom 1058 charge 2.0
Setting atom values ...
  1 settings made for charge
set atom 1058 image 0 0 0
Setting atom values ...
  1 settings made for image
set atom 1059 type 5
Setting atom values ...
  1 settings made for type
set atom 1059 charge -2.0
Setting atom values ...
  1 settings made for charge
set atom 1059 image 0 0 0
Setting atom values ...
  1 settings made for image
set atom 1060 type 5
Setting atom values ...
  1 settings made for type
set atom 1060 charge -2.0
Setting atom values ...
  1 settings made for charge
set atom 1060 image 0 0 0
Setting atom values ...
  1 settings made for image
set atom 1061 type 5
Setting atom values ...
  1 settings made for type
set atom 1061 charge -2.0
Setting atom values ...
  1 settings made for charge
set atom 1061 image 0 0 0
Setting atom values ...
  1 settings made for image
set atom 1062 type 2
Setting atom values ...
  1 settings made for type
set atom 1062 charge 4.0
Setting atom values ...
  1 settings made for charge
set atom 1062 image 0 0 0
Setting atom values ...
  1 settings made for image
set atom 1063 type 1
Setting atom values ...
  1 settings made for type
set atom 1063 charge 2.0
Setting atom values ...
  1 settings made for charge
set atom 1063 image 0 0 0
Setting atom values ...
  1 settings made for image
set atom 1064 type 5
Setting atom values ...
  1 settings made for type
set atom 1064 charge -2.0
Setting atom values ...
  1 settings made for charge
set atom 1064 image 0 0 0
Setting atom values ...
  1 settings made for image
set atom 1065 type 5
Setting atom values ...
  1 settings made for type
set atom 1065 charge -2.0
Setting atom values ...
  1 settings made for charge
set atom 1065 image 0 0 0
Setting atom values ...
  1 settings made for image
set atom 1066 type 5
Setting atom values ...
  1 settings made for type
set atom 1066 charge -2.0
Setting atom values ...
  1 settings made for charge
set atom 1066 image 0 0 0
Setting atom values ...
  1 settings made for image
set atom 1067 type 2
Setting atom values ...
  1 settings made for type
set atom 1067 charge 4.0
Setting atom values ...
  1 settings made for charge
set atom 1067 image 0 0 0
Setting atom values ...
  1 settings made for image
set atom 1068 type 1
Setting atom values ...
  1 settings made for type
set atom 1068 charge 2.0
Setting atom values ...
  1 settings made for charge
set atom 1068 image 0 0 0
Setting atom values ...
  1 settings made for image
set atom 1069 type 5
Setting atom values ...
  1 settings made for type
set atom 1069 charge -2.0
Setting atom values ...
  1 settings made for charge
set atom 1069 image 0 0 0
Setting atom values ...
  1 settings made for image
set atom 1070 type 5
Setting atom values ...
  1 settings made for type
set atom 1070 charge -2.0
Setting atom values ...
  1 settings made for charge
set atom 1070 image 0 0 0
Setting atom values ...
  1 settings made for image
set atom 1071 type 5
Setting atom values ...
  1 settings made for type
set atom 1071 charge -2.0
Setting atom values ...
  1 settings made for charge
set atom 1071 image 0 0 0
Setting atom values ...
  1 settings made for image
set atom 1072 type 2
Setting atom values ...
  1 settings made for type
set atom 1072 charge 4.0
Setting atom values ...
  1 settings made for charge
set atom 1072 image 0 0 0
Setting atom values ...
  1 settings made for image
set atom 1073 type 1
Setting atom values ...
  1 settings made for type
set atom 1073 charge 2.0
Setting atom values ...
  1 settings made for charge
set atom 1073 image 0 0 0
Setting atom values ...
  1 settings made for image
set atom 1074 type 5
Setting atom values ...
  1 settings made for type
set atom 1074 charge -2.0
Setting atom values ...
  1 settings made for charge
set atom 1074 image 0 0 0
Setting atom values ...
  1 settings made for image
set atom 1075 type 5
Setting atom values ...
  1 settings made for type
set atom 1075 charge -2.0
Setting atom values ...
  1 settings made for charge
set atom 1075 image 0 0 0
Setting atom values ...
  1 settings made for image
set atom 1076 type 5
Setting atom values ...
  1 settings made for type
set atom 1076 charge -2.0
Setting atom values ...
  1 settings made for charge
set atom 1076 image 0 0 0
Setting atom values ...
  1 settings made for image
set atom 1077 type 2
Setting atom values ...
  1 settings made for type
set atom 1077 charge 4.0
Setting atom values ...
  1 settings made for charge
set atom 1077 image 0 0 0
Setting atom values ...
  1 settings made for image
set atom 1078 type 1
Setting atom values ...
  1 settings made for type
set atom 1078 charge 2.0
Setting atom values ...
  1 settings made for charge
set atom 1078 image 0 0 0
Setting atom values ...
  1 settings made for image
set atom 1079 type 5
Setting atom values ...
  1 settings made for type
set atom 1079 charge -2.0
Setting atom values ...
  1 settings made for charge
set atom 1079 image 0 0 0
Setting atom values ...
  1 settings made for image
set atom 1080 type 5
Setting atom values ...
  1 settings made for type
set atom 1080 charge -2.0
Setting atom values ...
  1 settings made for charge
set atom 1080 image 0 0 0
Setting atom values ...
  1 settings made for image
set atom 1081 type 5
Setting atom values ...
  1 settings made for type
set atom 1081 charge -2.0
Setting atom values ...
  1 settings made for charge
set atom 1081 image 0 0 0
Setting atom values ...
  1 settings made for image

create_bonds single/bond          1          1         13 special yes 
Finding 1-2 1-3 1-4 neighbors ...
  special bond factors lj:    0        0        0       
  special bond factors coul:  0        0        0       
     1 = max # of 1-2 neighbors
     0 = max # of 1-3 neighbors
     0 = max # of 1-4 neighbors
     1 = max # of special neighbors
  special bonds CPU = 0.000 seconds
group HXY id 1 13 2 
3 atoms in group HXY
delete_bonds HXY multi remove
System init for delete_bonds ...
PPPM initialization ...
  using 12-bit tables for long-range coulomb (src/kspace.cpp:342)
  G vector (1/distance) = 0.34497565
  grid = 40 40 40
  stencil order = 5
  estimated absolute RMS force accuracy = 0.00013990511
  estimated relative force accuracy = 9.7158722e-06
  using double precision KISS FFT
  3d grid and FFT values/proc = 41209 16000
Generated 0 of 21 mixed pair_coeff terms from geometric mixing rule
Deleting bonds ...
  0 total bonds, 0 turned on, 0 turned off
  0 total angles, 0 turned on, 0 turned off
  0 total dihedrals, 0 turned on, 0 turned off
  0 total impropers, 0 turned on, 0 turned off

set atom 1 type 7
Setting atom values ...
  1 settings made for type
set atom 1 charge 0.308698
Setting atom values ...
  1 settings made for charge
set atom 2 type 4
Setting atom values ...
  1 settings made for type
set atom 2 charge -1.308698
Setting atom values ...
  1 settings made for charge
set atom 13 type 5
Setting atom values ...
  1 settings made for type
set atom 13 charge -2.0
Setting atom values ...
  1 settings made for charge
set atom 2 image 0 0 0
Setting atom values ...
  1 settings made for image
create_bonds single/bond 1 2 1 special yes
Finding 1-2 1-3 1-4 neighbors ...
  special bond factors lj:    0        0        0       
  special bond factors coul:  0        0        0       
     1 = max # of 1-2 neighbors
     0 = max # of 1-3 neighbors
     0 = max # of 1-4 neighbors
     1 = max # of special neighbors
  special bonds CPU = 0.000 seconds
group HXY delete

set atom 2 image 0 0 0
Setting atom values ...
  1 settings made for image
reset_atoms mol all single yes
Resetting molecule IDs ...
PPPM initialization ...
  using 12-bit tables for long-range coulomb (src/kspace.cpp:342)
  G vector (1/distance) = 0.34497565
  grid = 40 40 40
  stencil order = 5
  estimated absolute RMS force accuracy = 0.00013990511
  estimated relative force accuracy = 9.7158722e-06
  using double precision KISS FFT
  3d grid and FFT values/proc = 41209 16000
Generated 0 of 21 mixed pair_coeff terms from geometric mixing rule
  number of new molecule IDs = 1080
  reset_atoms mol CPU = 0.001 seconds

run 0 pre yes post no
PPPM initialization ...
  using 12-bit tables for long-range coulomb (src/kspace.cpp:342)
  G vector (1/distance) = 0.34497565
  grid = 40 40 40
  stencil order = 5
  estimated absolute RMS force accuracy = 0.00013990511
  estimated relative force accuracy = 9.7158722e-06
  using double precision KISS FFT
  3d grid and FFT values/proc = 41209 16000
Generated 0 of 21 mixed pair_coeff terms from geometric mixing rule
Per MPI rank memory allocation (min/avg/max) = 12.22 | 12.25 | 12.34 Mbytes
   Step          Temp          E_pair         E_mol          TotEng         Press     
         1   1498.9795     -31400.565      3.9642573     -31187.342     -986.61763    
Loop time of 2.84025e-06 on 4 procs for 0 steps with 1081 atoms

Total wall time: 0:00:00
